generated by phonopy                    
    1.000000000000000     
    12.9032000000000000    0.0000000000000000    0.0000000000000000
     0.0000000000000000   12.9032000000000000    0.0000000000000000
     0.0000000000000000    0.0000000000000000   11.9553000000000011
   Tl   Cu   Se
    12    60    36
Direct
  0.1187205976213642  0.0809870844840797  0.9989177381983357
  0.1116248848463572  0.0600943558660737  0.3176918324517836
  0.1127682375956899  0.0573451850239999  0.6478178998546924
  0.3989336194681417  0.5700138984257535  0.1564492288978202
  0.3794040633812444  0.6016735376694402  0.5247596063329371
  0.3845888786157219  0.6037138991758291  0.8305976076708675
  0.5813500400448770  0.3650624489912084  0.1495098955875485
  0.5857210425164474  0.3808699446768686  0.4804535145340940
  0.5437714291772677  0.3582776290239747  0.8052528572787008
  0.8772134259367889  0.8514841486917166  0.9794655327965819
  0.8820347852780798  0.8955646736599731  0.3207728287232106
  0.8744400553121061  0.8962247263324061  0.6414711807609016
  0.8127358563439840  0.1401295591911114  0.9876403226721691
  0.8357861857649741  0.1898340429641783  0.3147212894271273
  0.8135893164012008  0.1626415811183744  0.6749258225754132
  0.3108173923563530  0.2944253297945087  0.1615505807133312
  0.2614747918336356  0.3108251909408063  0.4627753152686243
  0.2842199089798262  0.3011775915177513  0.7993968500225672
  0.6868953092848081  0.6729676608084935  0.1366293923316667
  0.6612641985649831  0.6509197967672465  0.4842399851961136
  0.7099195458784002  0.5867447356530119  0.8159263411531735
  0.1871463038407566  0.8134018636022783  0.9844015375794899
  0.1414022940076054  0.7440857280054747  0.3166745201480957
  0.1491403900754335  0.7852007837401460  0.6746880332095291
  0.1994233490752177  0.3759265802252322  0.9720661892407132
  0.2015187217297601  0.4182287515861089  0.2770755783669666
  0.1772869496674349  0.3879808710075048  0.6402884589865536
  0.1019152534241860  0.6769832725896828  0.1076421616686211
  0.0669073831215357  0.6593341094018579  0.4982945722399973
  0.0826779661691212  0.6756903917617096  0.8525739004203349
  0.9323064703153920  0.2579708062040655  0.1416976062915502
  0.8699759643727337  0.2800634561494512  0.5254243717066053
  0.8696298076399883  0.2592224439228731  0.8312634550924668
  0.7746207675627085  0.5266728223285551  1.0088614056901750
  0.7994692952719443  0.5945351512014728  0.3387986877435836
  0.7777195473463906  0.5477659437239147  0.6317337846053844
  0.7261342040091323  0.0666382811953714  0.1584069115140964
  0.7073308128060110  0.0438282188715078  0.4910485250205067
  0.7072870465127399 -0.0046005897385637  0.8237107113572981
  0.2775811044009242  0.8987575029619738  0.1581572774799836
  0.2741715300437303  0.9162790477471630  0.4856063910004997
  0.2613351061896640  0.9223898761790619  0.8160149901101663
  0.4288690480749547  0.1836022370739550 -0.0040235041687890
  0.4488882123411813  0.2013318610727990  0.3054869613263927
  0.4161736821709610  0.2195576568582087  0.6193743412643492
  0.5870419395835150  0.7527041426201335  0.9951067292708203
  0.5511149461686897  0.7546809600838487  0.3006581359879407
  0.5331213380272674  0.7544066859720593  0.6336708813438539
  0.9898722314191057  0.3638584477622022  0.9647144226848209
  0.0058972906389767  0.3676697888835529  0.3108122199254062
  0.9841273197092950  0.3614544751095340  0.6644199255923254
  0.0820500317348927  0.4776199322807644  0.1319830486357380
  0.1098032268672534  0.4606669385987451  0.4595108716872302
  0.0843579392971404  0.4715116096575990  0.8071901336818900
  0.8876858727263017  0.4522899265850831  0.1668830728278168
  0.9007751239959267  0.4714737787091168  0.4729856635991676
  0.8798923792532184  0.4697063248017527  0.8222301637121933
  0.9658987169942602  0.5806747516140287  0.9861224816579927
  1.0006987952858477  0.5735361560383373  0.3084723109781174
  0.9677826622284188  0.5651177866989372  0.6562762049368083
  0.5245348936854389  0.0780781398404562  0.1440276031949200
  0.5144547119631608  0.0990738051490118  0.4769545003696513
  0.5049292621176854  0.0627490439737801  0.8222732893801561
  0.4712749350195996  0.8780961350030108  0.1549022467952156
  0.4665955182816433  0.9008479021035838  0.4948709492008130
  0.4718449535873472  0.8597670875665919  0.8252196433188594
  0.3881744907236099  0.9734260760094938  0.9841846272819075
  0.3864672033692768  0.9929767009020389  0.3284041496707780
  0.3879907007824249  1.0182385288821354  0.6554908376668626
  0.6029660627014418  0.9476622718029899  0.9818375551532871
  0.6181662361762331  0.9561441389038228  0.3172704327650163
  0.5740641223397492  0.9416449130822877  0.6652551583511986
  0.3784090241194786  0.3595793155671876  0.9834736662627893
  0.3917372411528964  0.3740508053496913  0.3210779510843592
  0.3628268940560415  0.3926980632054185  0.6437088409638401
  0.0984369878515912  0.8536268310740786  0.1642852084365926
  0.0927949230997610  0.8639918746738210  0.4960156584515224
  0.0866279782399650  0.8710940918481069  0.8244916249043361
  0.9090212582991437  0.0793317861789875  0.1610526356938213
  0.8812857642339850  0.0981186791624103  0.4965439131269255
  0.8902726461650183  0.0721109538299995  0.8312957221462125
  0.6045228487193026  0.5762635696220261 -0.0158205649519018
  0.6127321247295455  0.5854311186766061  0.3083405861920055
  0.6024635688108025  0.5888684295483591  0.6626527700867614
  0.6263921471560964  0.1365570373811275  0.9742832653868191
  0.6339852263276904  0.1461527380156813  0.3306869136684799
  0.5943774805371771  0.1466586019706375  0.6590156047487021
  0.3355322988776781  0.0891246274781927  0.1628359536822281
  0.3197476300799357  0.1296128170530356  0.4693003134924627
  0.3218437269942524  0.0993736695427542  0.8198056426982898
  0.6694474467520199  0.8832412232969730  0.1446342015128611
  0.6434175740369175  0.8556509984189102  0.4824955119049983
  0.6607273871818238  0.8234928994062514  0.8168149813089316
  0.3869067007019839  0.7881597422852517  0.9992339617984878
  0.3697585045399413  0.8039270975448651  0.3318911889141523
  0.3558981137043336  0.8326689831441976  0.6568854770785537
  0.1241706540975453  0.2835643460817119  0.1736934267144378
  0.0672774643172970  0.2895892370664983  0.5076768366034028
  0.0885212135855318  0.2674496716896566  0.8322578237648893
  0.8808396184128131  0.6509736276070475  0.1563777293593840
  0.8782195133105900  0.6667313960686065  0.5103002840915380
  0.8819426818835587  0.6552489224219764  0.8375093006077874
  0.1772029411253951  0.5543033382680016  0.9766386448313696
  0.2111283400534237  0.5806554421697954  0.3548070426834097
  0.1613196988161437  0.5848115355054645  0.6678499955529184
  0.8145115590059167  0.3481882853355927  1.0158832295556846
  0.8231688965769690  0.3818630105457334  0.3337449839995928
  0.7703511993585129  0.3563271230998747  0.6694628029941297
 
  0.34120372E-04  0.12616331E-02  0.12096317E-02
  0.31989086E-03  0.10483679E-02  0.29670923E-03
 -0.66230273E-03  0.14291692E-02  0.14841881E-03
  0.87572251E-03 -0.50496229E-03  0.97211616E-03
 -0.11352626E-02 -0.10676244E-02  0.80066005E-03
 -0.13053007E-02 -0.16427448E-02 -0.18296050E-02
  0.48041834E-03 -0.65942701E-03  0.79827338E-03
  0.63445849E-03 -0.10345450E-02 -0.94007821E-03
  0.38628277E-03  0.11726143E-03 -0.11637714E-04
  0.10538131E-02 -0.95860834E-03 -0.27499907E-03
  0.66155480E-03  0.85264261E-03 -0.24444900E-02
 -0.37164987E-03  0.11169628E-02 -0.23904548E-02
  0.18586756E-02  0.29206970E-02 -0.12745798E-02
  0.20399958E-03 -0.14494026E-02  0.31862868E-03
  0.41891698E-03  0.34621191E-03  0.98635872E-03
  0.17530246E-02 -0.31079709E-02  0.28607320E-02
  0.72687324E-03  0.33867372E-02 -0.13015191E-02
 -0.83620205E-03 -0.22970379E-02  0.71067286E-03
  0.47865270E-02  0.23108684E-02 -0.25366913E-02
  0.37050503E-02 -0.20607165E-02 -0.32142653E-03
 -0.16873827E-02  0.78135305E-03  0.27351396E-03
 -0.84623969E-03 -0.19389602E-02  0.62335739E-03
 -0.32065217E-03 -0.28172949E-02  0.12814987E-03
  0.11966476E-02  0.16751668E-02 -0.62861412E-03
  0.30212045E-03  0.20910807E-02  0.26879555E-02
 -0.20040173E-02  0.21921757E-02  0.34632720E-03
  0.28968138E-03 -0.21486887E-02 -0.18792642E-02
  0.61176702E-03  0.27074439E-02 -0.25488816E-02
 -0.26285856E-02 -0.23866232E-03  0.72479589E-03
 -0.15712964E-02 -0.16979610E-02 -0.27015549E-02
 -0.29082126E-02 -0.38797894E-02  0.44856574E-02
 -0.14014367E-02 -0.49442617E-03 -0.43822833E-02
 -0.15478499E-02 -0.22152347E-02 -0.13509351E-02
 -0.26963604E-02 -0.27601254E-02 -0.78660275E-03
 -0.78087753E-03 -0.24973964E-02 -0.92611338E-03
  0.22726252E-03 -0.58121767E-03 -0.15878159E-02
 -0.88263390E-03  0.70020887E-04 -0.77028616E-03
  0.20433316E-03 -0.40329532E-04 -0.69446313E-03
 -0.21284350E-03 -0.10138476E-02 -0.24437245E-02
 -0.23819304E-02  0.32551051E-03  0.41815853E-03
 -0.56439208E-03 -0.97972082E-03  0.20001557E-02
  0.10245197E-02 -0.98770512E-03 -0.24203210E-02
  0.16377203E-02 -0.34827924E-02 -0.22679075E-02
  0.47939045E-02 -0.54108132E-02  0.14259374E-03
 -0.18810489E-02  0.10577209E-03  0.15743861E-02
 -0.30633639E-02 -0.18238652E-02 -0.29060051E-02
  0.93168093E-03  0.15681716E-02  0.13288560E-02
  0.10232391E-02 -0.96710301E-03  0.22841938E-02
 -0.73891255E-03 -0.29496249E-02  0.29163657E-03
 -0.36995729E-03 -0.12097671E-02 -0.16652655E-03
 -0.41197817E-04 -0.39558552E-02  0.10261415E-02
  0.28979212E-02  0.12517406E-02 -0.38374985E-03
  0.23096214E-03  0.12551989E-02 -0.24561146E-02
  0.11183587E-03 -0.22063009E-02 -0.16904351E-02
 -0.31792068E-02 -0.86977451E-03 -0.26337334E-03
 -0.45433650E-02  0.20708491E-02 -0.11531830E-02
  0.10040854E-02  0.31663176E-02  0.25907369E-02
 -0.76515178E-03 -0.27159149E-02 -0.26252888E-02
  0.57073058E-03  0.84685035E-03  0.77274983E-03
 -0.21773890E-02  0.16005026E-02  0.22570278E-03
  0.10687489E-02  0.42421825E-02 -0.13373573E-03
 -0.38159874E-02  0.14827294E-02 -0.10836470E-02
  0.55639116E-03  0.72367313E-03 -0.11513014E-02
  0.29496351E-02 -0.17469701E-02  0.10150094E-02
 -0.88029531E-03  0.10655973E-02  0.13559686E-02
  0.36482292E-03  0.26567786E-02  0.75132096E-03
 -0.69384866E-03  0.54940790E-03 -0.59260073E-03
  0.10843872E-02  0.28914091E-02  0.24741412E-02
 -0.12534041E-02  0.20141172E-03 -0.49210260E-03
  0.15557355E-02  0.30970768E-04 -0.47536316E-02
 -0.92917520E-03 -0.69484587E-03 -0.23068517E-02
 -0.97979056E-03  0.26517925E-02 -0.24761721E-03
  0.17385240E-02  0.14195779E-02 -0.15997959E-02
  0.47340846E-03 -0.47603744E-03 -0.42861454E-04
 -0.55564551E-03  0.28833336E-02  0.19078797E-02
 -0.16565951E-03 -0.14503431E-02 -0.24032798E-02
  0.14374906E-02 -0.90582578E-03  0.18531505E-02
 -0.17121662E-02 -0.30865016E-02 -0.15395557E-02
 -0.50192606E-02 -0.26347762E-03 -0.57582047E-03
  0.36293508E-02  0.32609806E-02 -0.11880363E-02
  0.44372361E-02  0.17813408E-02 -0.20483264E-02
 -0.93878565E-03 -0.35303575E-03 -0.17859805E-02
 -0.65585401E-04 -0.10659019E-02 -0.84404408E-03
  0.21087490E-02 -0.27453958E-02 -0.13363228E-02
  0.27840409E-03 -0.51636671E-03 -0.23620913E-04
  0.18171635E-02 -0.44391533E-03 -0.16924656E-02
  0.47819560E-03 -0.67386568E-03  0.67086947E-03
 -0.29439045E-02 -0.24718897E-02 -0.23346338E-02
  0.99713940E-03 -0.14266413E-02  0.14859110E-03
 -0.32101772E-02 -0.61240865E-04  0.85339579E-03
 -0.14427230E-02 -0.80745001E-03  0.24786481E-03
  0.13870981E-02 -0.11672180E-04 -0.13764742E-02
 -0.22932402E-02 -0.17063968E-02  0.34236034E-04
 -0.55220097E-03 -0.13703295E-03  0.21012334E-02
 -0.63254968E-03 -0.14038138E-02 -0.11074276E-02
 -0.51838170E-04 -0.66857416E-03  0.33324068E-02
 -0.22664588E-02  0.76499084E-03  0.19061360E-02
  0.92236430E-03 -0.30691289E-03  0.16735425E-03
 -0.27903223E-04  0.49341201E-02 -0.54300578E-03
 -0.91177675E-03 -0.29298908E-02 -0.16188613E-02
 -0.10222986E-02 -0.12611685E-02 -0.60911069E-03
  0.27426530E-02  0.39110935E-03 -0.26130605E-02
  0.34700703E-02  0.86890229E-03  0.78798001E-03
 -0.20053306E-02 -0.45145494E-03  0.13807805E-02
  0.16773149E-02  0.20851361E-02 -0.76795270E-03
  0.58435108E-03  0.62321329E-03  0.20852571E-03
 -0.35516265E-02  0.25093679E-02 -0.23457519E-02
  0.19107065E-02 -0.16548514E-02  0.43974972E-03
 
            1
   0.5000000000000000     
  0.10000000E+01  0.00000000E+00  0.00000000E+00  0.00000000E+00
  0.11872192E+00  0.81035973E-01  0.99896833E+00
  0.11163728E+00  0.60134980E-01  0.31770424E+00
  0.11274257E+00  0.57400565E-01  0.64782411E+00
  0.39896755E+00  0.56999433E+00  0.15648989E+00
  0.37936007E+00  0.60163217E+00  0.52479309E+00
  0.38453830E+00  0.60365024E+00  0.83052109E+00
  0.58136866E+00  0.36503690E+00  0.14954328E+00
  0.58574563E+00  0.38082986E+00  0.48041420E+00
  0.54378640E+00  0.35828217E+00  0.80525237E+00
  0.87725426E+00  0.85144700E+00  0.97945403E+00
  0.88206042E+00  0.89559771E+00  0.32067059E+00
  0.87442565E+00  0.89626801E+00  0.64137121E+00
  0.81280788E+00  0.14024274E+00  0.98758702E+00
  0.83579409E+00  0.18977788E+00  0.31473462E+00
  0.81360555E+00  0.16265500E+00  0.67496707E+00
  0.31088532E+00  0.29430490E+00  0.16167022E+00
  0.26150296E+00  0.31095643E+00  0.46272088E+00
  0.28418751E+00  0.30108858E+00  0.79942657E+00
  0.68708079E+00  0.67305721E+00  0.13652330E+00
  0.66140777E+00  0.65083994E+00  0.48422654E+00
  0.70985416E+00  0.58677501E+00  0.81593778E+00
  0.18711351E+00  0.81332673E+00  0.98442761E+00
  0.14138987E+00  0.74397656E+00  0.31667988E+00
  0.14918676E+00  0.78526570E+00  0.67466174E+00
  0.19943506E+00  0.37600761E+00  0.97217861E+00
  0.20144107E+00  0.41831370E+00  0.27709006E+00
  0.17729817E+00  0.38789761E+00  0.64020986E+00
  0.10193896E+00  0.67708819E+00  0.10753556E+00
  0.66805525E-01  0.65932486E+00  0.49832488E+00
  0.82617078E-01  0.67562460E+00  0.85246091E+00
  0.93219378E+00  0.25782046E+00  0.14188521E+00
  0.86992166E+00  0.28004430E+00  0.52524109E+00
  0.86956983E+00  0.25913660E+00  0.83120696E+00
  0.77451628E+00  0.52656587E+00  0.88285080E-02
  0.79943904E+00  0.59443838E+00  0.33875996E+00
  0.77772835E+00  0.54774342E+00  0.63166738E+00
  0.72610000E+00  0.66640995E-01  0.15837470E+00
  0.70733873E+00  0.43826656E-01  0.49101948E+00
  0.70727880E+00  0.99536012E+00  0.82360851E+00
  0.27748880E+00  0.89877012E+00  0.15817477E+00
  0.27414966E+00  0.91624108E+00  0.48569004E+00
  0.26137481E+00  0.92235160E+00  0.81591377E+00
  0.42893251E+00  0.18346728E+00  0.99588165E+00
  0.44907398E+00  0.20112219E+00  0.30549292E+00
  0.41610079E+00  0.21956176E+00  0.61944019E+00
  0.58692323E+00  0.75263347E+00  0.99498519E+00
  0.55115105E+00  0.75474173E+00  0.30071371E+00
  0.53316099E+00  0.75436921E+00  0.63376641E+00
  0.98984360E+00  0.36374415E+00  0.96472662E+00
  0.58829548E-02  0.36762291E+00  0.31080526E+00
  0.98412572E+00  0.36130119E+00  0.66446284E+00
  0.82162326E-01  0.47766844E+00  0.13196700E+00
  0.10981218E+00  0.46071558E+00  0.45940815E+00
  0.84362273E-01  0.47142612E+00  0.80711944E+00
  0.88756268E+00  0.45225622E+00  0.16687206E+00
  0.90059907E+00  0.47155402E+00  0.47293743E+00
  0.87993129E+00  0.46982902E+00  0.82233851E+00
  0.96586907E+00  0.58056951E+00  0.98601269E+00
  0.72091114E-03  0.57356897E+00  0.30850463E+00
  0.96769829E+00  0.56517981E+00  0.65628564E+00
  0.52457631E+00  0.78242525E-01  0.14402201E+00
  0.51430684E+00  0.99131261E-01  0.47690918E+00
  0.50495082E+00  0.62777086E-01  0.82222514E+00
  0.47138923E+00  0.87802844E+00  0.15494470E+00
  0.46656141E+00  0.90088919E+00  0.49492766E+00
  0.47185909E+00  0.85987004E+00  0.82525107E+00
  0.38814760E+00  0.97344737E+00  0.98415984E+00
  0.38650922E+00  0.99308874E+00  0.32850762E+00
  0.38794213E+00  0.18246334E-01  0.65547026E+00
  0.60302635E+00  0.94766347E+00  0.98163875E+00
  0.61813023E+00  0.95611721E+00  0.31717395E+00
  0.57402616E+00  0.94174767E+00  0.66524480E+00
  0.37847639E+00  0.35963432E+00  0.98340676E+00
  0.39175559E+00  0.37403236E+00  0.32107616E+00
  0.36280536E+00  0.39280979E+00  0.64378863E+00
  0.98430569E-01  0.85357063E+00  0.16418470E+00
  0.92850626E-01  0.86395677E+00  0.49609316E+00
  0.86561632E-01  0.87097449E+00  0.82442724E+00
  0.90882676E+00  0.79321576E-01  0.16102855E+00
  0.88142640E+00  0.98245042E-01  0.49649423E+00
  0.89044459E+00  0.72179981E-01  0.83121006E+00
  0.60448647E+00  0.57624989E+00  0.98410474E+00
  0.61272958E+00  0.58538981E+00  0.30830529E+00
  0.60254528E+00  0.58876205E+00  0.66259688E+00
  0.62640294E+00  0.13653703E+00  0.97428228E+00
  0.63405564E+00  0.14613554E+00  0.33061613E+00
  0.59439601E+00  0.14663249E+00  0.65904366E+00
  0.33541822E+00  0.89028842E-01  0.16273831E+00
  0.31978627E+00  0.12955753E+00  0.46930653E+00
  0.32171933E+00  0.99371296E-01  0.81984133E+00
  0.66939154E+00  0.88320993E+00  0.14464457E+00
  0.64347132E+00  0.85565055E+00  0.48243794E+00
  0.66063852E+00  0.82342678E+00  0.81681641E+00
  0.38688530E+00  0.78815443E+00  0.99932184E+00
  0.36973399E+00  0.80387270E+00  0.33184487E+00
  0.35589610E+00  0.83264308E+00  0.65702485E+00
  0.12408283E+00  0.28359399E+00  0.17377315E+00
  0.67313206E-01  0.28957734E+00  0.50768384E+00
  0.88520132E-01  0.26764087E+00  0.83223511E+00
  0.88080429E+00  0.65086009E+00  0.15631002E+00
  0.87817990E+00  0.66668253E+00  0.51027481E+00
  0.88204896E+00  0.65526408E+00  0.83740002E+00
  0.17733741E+00  0.55433701E+00  0.97667160E+00
  0.21105063E+00  0.58063795E+00  0.35486479E+00
  0.16138469E+00  0.58489233E+00  0.66781788E+00
  0.81453420E+00  0.34821243E+00  0.15891951E-01
  0.82303127E+00  0.38196025E+00  0.33364688E+00
  0.77042524E+00  0.35626300E+00  0.66948119E+00
  0.00000000E+00  0.00000000E+00  0.00000000E+00
  0.00000000E+00  0.00000000E+00  0.00000000E+00
  0.00000000E+00  0.00000000E+00  0.00000000E+00
  0.00000000E+00  0.00000000E+00  0.00000000E+00
  0.00000000E+00  0.00000000E+00  0.00000000E+00
  0.00000000E+00  0.00000000E+00  0.00000000E+00
  0.00000000E+00  0.00000000E+00  0.00000000E+00
  0.00000000E+00  0.00000000E+00  0.00000000E+00
  0.00000000E+00  0.00000000E+00  0.00000000E+00
  0.00000000E+00  0.00000000E+00  0.00000000E+00
  0.00000000E+00  0.00000000E+00  0.00000000E+00
  0.00000000E+00  0.00000000E+00  0.00000000E+00
  0.00000000E+00  0.00000000E+00  0.00000000E+00
  0.00000000E+00  0.00000000E+00  0.00000000E+00
  0.00000000E+00  0.00000000E+00  0.00000000E+00
  0.00000000E+00  0.00000000E+00  0.00000000E+00
  0.00000000E+00  0.00000000E+00  0.00000000E+00
  0.00000000E+00  0.00000000E+00  0.00000000E+00
  0.00000000E+00  0.00000000E+00  0.00000000E+00
  0.00000000E+00  0.00000000E+00  0.00000000E+00
  0.00000000E+00  0.00000000E+00  0.00000000E+00
  0.00000000E+00  0.00000000E+00  0.00000000E+00
  0.00000000E+00  0.00000000E+00  0.00000000E+00
  0.00000000E+00  0.00000000E+00  0.00000000E+00
  0.00000000E+00  0.00000000E+00  0.00000000E+00
  0.00000000E+00  0.00000000E+00  0.00000000E+00
  0.00000000E+00  0.00000000E+00  0.00000000E+00
  0.00000000E+00  0.00000000E+00  0.00000000E+00
  0.00000000E+00  0.00000000E+00  0.00000000E+00
  0.00000000E+00  0.00000000E+00  0.00000000E+00
  0.00000000E+00  0.00000000E+00  0.00000000E+00
  0.00000000E+00  0.00000000E+00  0.00000000E+00
  0.00000000E+00  0.00000000E+00  0.00000000E+00
  0.00000000E+00  0.00000000E+00  0.00000000E+00
  0.00000000E+00  0.00000000E+00  0.00000000E+00
  0.00000000E+00  0.00000000E+00  0.00000000E+00
  0.00000000E+00  0.00000000E+00  0.00000000E+00
  0.00000000E+00  0.00000000E+00  0.00000000E+00
  0.00000000E+00  0.00000000E+00  0.00000000E+00
  0.00000000E+00  0.00000000E+00  0.00000000E+00
  0.00000000E+00  0.00000000E+00  0.00000000E+00
  0.00000000E+00  0.00000000E+00  0.00000000E+00
  0.00000000E+00  0.00000000E+00  0.00000000E+00
  0.00000000E+00  0.00000000E+00  0.00000000E+00
  0.00000000E+00  0.00000000E+00  0.00000000E+00
  0.00000000E+00  0.00000000E+00  0.00000000E+00
  0.00000000E+00  0.00000000E+00  0.00000000E+00
  0.00000000E+00  0.00000000E+00  0.00000000E+00
  0.00000000E+00  0.00000000E+00  0.00000000E+00
  0.00000000E+00  0.00000000E+00  0.00000000E+00
  0.00000000E+00  0.00000000E+00  0.00000000E+00
  0.00000000E+00  0.00000000E+00  0.00000000E+00
  0.00000000E+00  0.00000000E+00  0.00000000E+00
  0.00000000E+00  0.00000000E+00  0.00000000E+00
  0.00000000E+00  0.00000000E+00  0.00000000E+00
  0.00000000E+00  0.00000000E+00  0.00000000E+00
  0.00000000E+00  0.00000000E+00  0.00000000E+00
  0.00000000E+00  0.00000000E+00  0.00000000E+00
  0.00000000E+00  0.00000000E+00  0.00000000E+00
  0.00000000E+00  0.00000000E+00  0.00000000E+00
  0.00000000E+00  0.00000000E+00  0.00000000E+00
  0.00000000E+00  0.00000000E+00  0.00000000E+00
  0.00000000E+00  0.00000000E+00  0.00000000E+00
  0.00000000E+00  0.00000000E+00  0.00000000E+00
  0.00000000E+00  0.00000000E+00  0.00000000E+00
  0.00000000E+00  0.00000000E+00  0.00000000E+00
  0.00000000E+00  0.00000000E+00  0.00000000E+00
  0.00000000E+00  0.00000000E+00  0.00000000E+00
  0.00000000E+00  0.00000000E+00  0.00000000E+00
  0.00000000E+00  0.00000000E+00  0.00000000E+00
  0.00000000E+00  0.00000000E+00  0.00000000E+00
  0.00000000E+00  0.00000000E+00  0.00000000E+00
  0.00000000E+00  0.00000000E+00  0.00000000E+00
  0.00000000E+00  0.00000000E+00  0.00000000E+00
  0.00000000E+00  0.00000000E+00  0.00000000E+00
  0.00000000E+00  0.00000000E+00  0.00000000E+00
  0.00000000E+00  0.00000000E+00  0.00000000E+00
  0.00000000E+00  0.00000000E+00  0.00000000E+00
  0.00000000E+00  0.00000000E+00  0.00000000E+00
  0.00000000E+00  0.00000000E+00  0.00000000E+00
  0.00000000E+00  0.00000000E+00  0.00000000E+00
  0.00000000E+00  0.00000000E+00  0.00000000E+00
  0.00000000E+00  0.00000000E+00  0.00000000E+00
  0.00000000E+00  0.00000000E+00  0.00000000E+00
  0.00000000E+00  0.00000000E+00  0.00000000E+00
  0.00000000E+00  0.00000000E+00  0.00000000E+00
  0.00000000E+00  0.00000000E+00  0.00000000E+00
  0.00000000E+00  0.00000000E+00  0.00000000E+00
  0.00000000E+00  0.00000000E+00  0.00000000E+00
  0.00000000E+00  0.00000000E+00  0.00000000E+00
  0.00000000E+00  0.00000000E+00  0.00000000E+00
  0.00000000E+00  0.00000000E+00  0.00000000E+00
  0.00000000E+00  0.00000000E+00  0.00000000E+00
  0.00000000E+00  0.00000000E+00  0.00000000E+00
  0.00000000E+00  0.00000000E+00  0.00000000E+00
  0.00000000E+00  0.00000000E+00  0.00000000E+00
  0.00000000E+00  0.00000000E+00  0.00000000E+00
  0.00000000E+00  0.00000000E+00  0.00000000E+00
  0.00000000E+00  0.00000000E+00  0.00000000E+00
  0.00000000E+00  0.00000000E+00  0.00000000E+00
  0.00000000E+00  0.00000000E+00  0.00000000E+00
  0.00000000E+00  0.00000000E+00  0.00000000E+00
  0.00000000E+00  0.00000000E+00  0.00000000E+00
  0.00000000E+00  0.00000000E+00  0.00000000E+00
  0.00000000E+00  0.00000000E+00  0.00000000E+00
  0.00000000E+00  0.00000000E+00  0.00000000E+00
  0.00000000E+00  0.00000000E+00  0.00000000E+00
  0.00000000E+00  0.00000000E+00  0.00000000E+00
  0.00000000E+00  0.00000000E+00  0.00000000E+00
  0.00000000E+00  0.00000000E+00  0.00000000E+00
  0.00000000E+00  0.00000000E+00  0.00000000E+00
  0.00000000E+00  0.00000000E+00  0.00000000E+00
  0.00000000E+00  0.00000000E+00  0.00000000E+00
  0.00000000E+00  0.00000000E+00  0.00000000E+00
  0.00000000E+00  0.00000000E+00  0.00000000E+00
  0.00000000E+00  0.00000000E+00  0.00000000E+00
  0.00000000E+00  0.00000000E+00  0.00000000E+00
  0.00000000E+00  0.00000000E+00  0.00000000E+00
  0.00000000E+00  0.00000000E+00  0.00000000E+00
  0.00000000E+00  0.00000000E+00  0.00000000E+00
  0.00000000E+00  0.00000000E+00  0.00000000E+00
  0.00000000E+00  0.00000000E+00  0.00000000E+00
  0.00000000E+00  0.00000000E+00  0.00000000E+00
  0.00000000E+00  0.00000000E+00  0.00000000E+00
  0.00000000E+00  0.00000000E+00  0.00000000E+00
  0.00000000E+00  0.00000000E+00  0.00000000E+00
  0.00000000E+00  0.00000000E+00  0.00000000E+00
  0.00000000E+00  0.00000000E+00  0.00000000E+00
  0.00000000E+00  0.00000000E+00  0.00000000E+00
  0.00000000E+00  0.00000000E+00  0.00000000E+00
  0.00000000E+00  0.00000000E+00  0.00000000E+00
  0.00000000E+00  0.00000000E+00  0.00000000E+00
  0.00000000E+00  0.00000000E+00  0.00000000E+00
  0.00000000E+00  0.00000000E+00  0.00000000E+00
  0.00000000E+00  0.00000000E+00  0.00000000E+00
  0.00000000E+00  0.00000000E+00  0.00000000E+00
  0.00000000E+00  0.00000000E+00  0.00000000E+00
  0.00000000E+00  0.00000000E+00  0.00000000E+00
  0.00000000E+00  0.00000000E+00  0.00000000E+00
  0.00000000E+00  0.00000000E+00  0.00000000E+00
  0.00000000E+00  0.00000000E+00  0.00000000E+00
  0.00000000E+00  0.00000000E+00  0.00000000E+00
  0.00000000E+00  0.00000000E+00  0.00000000E+00
  0.00000000E+00  0.00000000E+00  0.00000000E+00
  0.00000000E+00  0.00000000E+00  0.00000000E+00
  0.00000000E+00  0.00000000E+00  0.00000000E+00
  0.00000000E+00  0.00000000E+00  0.00000000E+00
  0.00000000E+00  0.00000000E+00  0.00000000E+00
  0.00000000E+00  0.00000000E+00  0.00000000E+00
  0.00000000E+00  0.00000000E+00  0.00000000E+00
  0.00000000E+00  0.00000000E+00  0.00000000E+00
  0.00000000E+00  0.00000000E+00  0.00000000E+00
  0.00000000E+00  0.00000000E+00  0.00000000E+00
  0.00000000E+00  0.00000000E+00  0.00000000E+00
  0.00000000E+00  0.00000000E+00  0.00000000E+00
  0.00000000E+00  0.00000000E+00  0.00000000E+00
  0.00000000E+00  0.00000000E+00  0.00000000E+00
  0.00000000E+00  0.00000000E+00  0.00000000E+00
  0.00000000E+00  0.00000000E+00  0.00000000E+00
  0.00000000E+00  0.00000000E+00  0.00000000E+00
  0.00000000E+00  0.00000000E+00  0.00000000E+00
  0.00000000E+00  0.00000000E+00  0.00000000E+00
  0.00000000E+00  0.00000000E+00  0.00000000E+00
  0.00000000E+00  0.00000000E+00  0.00000000E+00
  0.00000000E+00  0.00000000E+00  0.00000000E+00
  0.00000000E+00  0.00000000E+00  0.00000000E+00
  0.00000000E+00  0.00000000E+00  0.00000000E+00
  0.00000000E+00  0.00000000E+00  0.00000000E+00
  0.00000000E+00  0.00000000E+00  0.00000000E+00
  0.00000000E+00  0.00000000E+00  0.00000000E+00
  0.00000000E+00  0.00000000E+00  0.00000000E+00
  0.00000000E+00  0.00000000E+00  0.00000000E+00
  0.00000000E+00  0.00000000E+00  0.00000000E+00
  0.00000000E+00  0.00000000E+00  0.00000000E+00
  0.00000000E+00  0.00000000E+00  0.00000000E+00
  0.00000000E+00  0.00000000E+00  0.00000000E+00
  0.00000000E+00  0.00000000E+00  0.00000000E+00
  0.00000000E+00  0.00000000E+00  0.00000000E+00
  0.00000000E+00  0.00000000E+00  0.00000000E+00
  0.00000000E+00  0.00000000E+00  0.00000000E+00
  0.00000000E+00  0.00000000E+00  0.00000000E+00
  0.00000000E+00  0.00000000E+00  0.00000000E+00
  0.00000000E+00  0.00000000E+00  0.00000000E+00
  0.00000000E+00  0.00000000E+00  0.00000000E+00
  0.00000000E+00  0.00000000E+00  0.00000000E+00
  0.00000000E+00  0.00000000E+00  0.00000000E+00
  0.00000000E+00  0.00000000E+00  0.00000000E+00
  0.00000000E+00  0.00000000E+00  0.00000000E+00
  0.00000000E+00  0.00000000E+00  0.00000000E+00
  0.00000000E+00  0.00000000E+00  0.00000000E+00
  0.00000000E+00  0.00000000E+00  0.00000000E+00
  0.00000000E+00  0.00000000E+00  0.00000000E+00
  0.00000000E+00  0.00000000E+00  0.00000000E+00
  0.00000000E+00  0.00000000E+00  0.00000000E+00
  0.00000000E+00  0.00000000E+00  0.00000000E+00
  0.00000000E+00  0.00000000E+00  0.00000000E+00
  0.00000000E+00  0.00000000E+00  0.00000000E+00
  0.00000000E+00  0.00000000E+00  0.00000000E+00
  0.00000000E+00  0.00000000E+00  0.00000000E+00
  0.00000000E+00  0.00000000E+00  0.00000000E+00
  0.00000000E+00  0.00000000E+00  0.00000000E+00
  0.00000000E+00  0.00000000E+00  0.00000000E+00
  0.00000000E+00  0.00000000E+00  0.00000000E+00
  0.00000000E+00  0.00000000E+00  0.00000000E+00
  0.00000000E+00  0.00000000E+00  0.00000000E+00
  0.00000000E+00  0.00000000E+00  0.00000000E+00
  0.00000000E+00  0.00000000E+00  0.00000000E+00
  0.00000000E+00  0.00000000E+00  0.00000000E+00
  0.00000000E+00  0.00000000E+00  0.00000000E+00
  0.00000000E+00  0.00000000E+00  0.00000000E+00
  0.00000000E+00  0.00000000E+00  0.00000000E+00
  0.00000000E+00  0.00000000E+00  0.00000000E+00
  0.00000000E+00  0.00000000E+00  0.00000000E+00
  0.00000000E+00  0.00000000E+00  0.00000000E+00
  0.00000000E+00  0.00000000E+00  0.00000000E+00
  0.00000000E+00  0.00000000E+00  0.00000000E+00
