  PAW_PBE Tl_d 06Sep2000                 
   13.0000000000000     
 parameters from PSCTR are:
   SHA256 =  114f54bd8cac727af4c1a2dcc375cc6f82ae0f808e1efd36f54552a740d0afeb Tl_d/POTCAR
   COPYR  = (c) Copyright 06Sep2000 Georg Kresse
   COPYR  = This file is part of the software VASP. Any use, copying, and all other rights are regulated by the VASP license agreement.
   COPYR  = If you do not have a valid VASP license, you may not use, copy or distribute this file.
   VRHFIN =Tl:
   LEXCH  = PE
   EATOM  =  1391.8071 eV,  102.2949 Ry

   TITEL  = PAW_PBE Tl_d 06Sep2000
   LULTRA =        F    use ultrasoft PP ?
   IUNSCR =        1    unscreen: 0-lin 1-nonlin 2-no
   RPACOR =    2.200    partial core radius
   POMASS =  204.380; ZVAL   =   13.000    mass and valenz
   RCORE  =    2.500    outmost cutoff radius
   RWIGS  =    3.260; RWIGS  =    1.725    wigner-seitz radius (au A)
   ENMAX  =  237.053; ENMIN  =  177.789 eV
   ICORE  =        3    local potential
   LCOR   =        T    correct aug charges
   LPAW   =        T    paw PP
   EAUG   =  395.511
   DEXC   =    0.000
   RMAX   =    2.553    core radius for proj-oper
   RAUG   =    1.300    factor for augmentation sphere
   RDEP   =    2.630    radius for radial grids
   RDEPT  =    2.133    core radius for aug-charge
 
   Atomic configuration
   16 entries
     n  l   j            E        occ.
     1  0  0.50    -85594.3226   2.0000
     2  0  0.50    -15237.2711   2.0000
     2  1  1.50    -13100.9674   6.0000
     3  0  0.50     -3637.0868   2.0000
     3  1  1.50     -3022.5362   6.0000
     3  2  2.50     -2387.1749  10.0000
     4  0  0.50      -811.8534   2.0000
     4  1  1.50      -610.4868   6.0000
     4  2  2.50      -374.8241  10.0000
     4  3  3.50      -114.0438  14.0000
     5  0  0.50      -130.9408   2.0000
     5  1  1.50       -76.0548   6.0000
     5  2  2.50       -15.4864  10.0000
     6  0  0.50        -9.5437   2.0000
     6  1  1.50        -2.3700   1.0000
     5  3  2.50        -2.7212   0.0000
   Description
     l       E           TYP  RCUT    TYP  RCUT
     2    -15.4863948     23  2.500
     2    -16.8469774     23  2.500
     0     -9.5436777     23  2.500
     0     13.6058260     23  2.500
     1     -2.3700287     23  2.500
     1     13.6058260     23  2.500
     3     -1.3605826      7  2.500
   Error from kinetic energy argument (eV)
   NDATA  =      100
   STEP   =   20.000   1.050
  196.      194.      192.      190.      188.      185.      182.      181.
  177.      173.      171.      167.      163.      158.      154.      149.
  144.      138.      133.      125.      119.      114.      105.      99.7
  94.2      86.1      78.2      73.0      65.6      58.5      51.8      45.6
  39.8      34.5      29.7      25.3      20.2      16.8      13.0      10.6
  7.94      5.81      4.15      2.89      1.95      1.28     0.810     0.437
 0.261     0.140     0.865E-01 0.702E-01 0.649E-01 0.645E-01 0.619E-01 0.560E-01
 0.473E-01 0.354E-01 0.244E-01 0.159E-01 0.105E-01 0.767E-02 0.662E-02 0.642E-02
 0.632E-02 0.582E-02 0.485E-02 0.367E-02 0.247E-02 0.177E-02 0.138E-02 0.128E-02
 0.126E-02 0.117E-02 0.959E-03 0.728E-03 0.515E-03 0.400E-03 0.365E-03 0.357E-03
 0.323E-03 0.257E-03 0.189E-03 0.144E-03 0.131E-03 0.127E-03 0.112E-03 0.852E-04
 0.640E-04 0.561E-04 0.539E-04 0.480E-04 0.364E-04 0.287E-04 0.263E-04 0.247E-04
 0.200E-04 0.156E-04 0.138E-04 0.130E-04
END of PSCTR-controll parameters
 local part
   75.5890395431569     
  0.11238298E+03  0.11237251E+03  0.11235859E+03  0.11233539E+03  0.11230293E+03
  0.11226122E+03  0.11221027E+03  0.11215006E+03  0.11208057E+03  0.11200175E+03
  0.11191353E+03  0.11181581E+03  0.11170848E+03  0.11159139E+03  0.11146438E+03
  0.11132727E+03  0.11117985E+03  0.11102193E+03  0.11085327E+03  0.11067366E+03
  0.11048284E+03  0.11028054E+03  0.11006651E+03  0.10984044E+03  0.10960202E+03
  0.10935093E+03  0.10908681E+03  0.10880929E+03  0.10851800E+03  0.10821254E+03
  0.10789249E+03  0.10755743E+03  0.10720693E+03  0.10684054E+03  0.10645783E+03
  0.10605833E+03  0.10564159E+03  0.10520716E+03  0.10475456E+03  0.10428336E+03
  0.10379309E+03  0.10328330E+03  0.10275358E+03  0.10220349E+03  0.10163263E+03
  0.10104063E+03  0.10042712E+03  0.99791778E+02  0.99134294E+02  0.98454401E+02
  0.97751864E+02  0.97026486E+02  0.96278112E+02  0.95506628E+02  0.94711970E+02
  0.93894121E+02  0.93053117E+02  0.92189047E+02  0.91302060E+02  0.90392358E+02
  0.89460208E+02  0.88505935E+02  0.87529927E+02  0.86532634E+02  0.85514568E+02
  0.84476306E+02  0.83418488E+02  0.82341816E+02  0.81247053E+02  0.80135027E+02
  0.79006621E+02  0.77862780E+02  0.76704505E+02  0.75532849E+02  0.74348916E+02
  0.73153859E+02  0.71948876E+02  0.70735205E+02  0.69514122E+02  0.68286936E+02
  0.67054985E+02  0.65819632E+02  0.64582261E+02  0.63344272E+02  0.62107074E+02
  0.60872083E+02  0.59640716E+02  0.58414385E+02  0.57194491E+02  0.55982423E+02
  0.54779546E+02  0.53587203E+02  0.52406706E+02  0.51239332E+02  0.50086319E+02
  0.48948860E+02  0.47828101E+02  0.46725135E+02  0.45640999E+02  0.44576670E+02
  0.43533062E+02  0.42511021E+02  0.41511327E+02  0.40534686E+02  0.39581730E+02
  0.38653018E+02  0.37749031E+02  0.36870173E+02  0.36016770E+02  0.35189071E+02
  0.34387246E+02  0.33611387E+02  0.32861510E+02  0.32137557E+02  0.31439394E+02
  0.30766817E+02  0.30119552E+02  0.29497257E+02  0.28899527E+02  0.28325896E+02
  0.27775841E+02  0.27248785E+02  0.26744102E+02  0.26261117E+02  0.25799117E+02
  0.25357350E+02  0.24935031E+02  0.24531346E+02  0.24145458E+02  0.23776511E+02
  0.23423632E+02  0.23085940E+02  0.22762547E+02  0.22452565E+02  0.22155108E+02
  0.21869299E+02  0.21594270E+02  0.21329170E+02  0.21073166E+02  0.20825448E+02
  0.20585232E+02  0.20351761E+02  0.20124311E+02  0.19902191E+02  0.19684748E+02
  0.19471364E+02  0.19261463E+02  0.19054510E+02  0.18850014E+02  0.18647523E+02
  0.18446632E+02  0.18246978E+02  0.18048244E+02  0.17850153E+02  0.17652474E+02
  0.17455014E+02  0.17257626E+02  0.17060198E+02  0.16862658E+02  0.16664971E+02
  0.16467134E+02  0.16269178E+02  0.16071164E+02  0.15873181E+02  0.15675342E+02
  0.15477783E+02  0.15280662E+02  0.15084151E+02  0.14888441E+02  0.14693730E+02
  0.14500231E+02  0.14308161E+02  0.14117740E+02  0.13929194E+02  0.13742744E+02
  0.13558611E+02  0.13377011E+02  0.13198149E+02  0.13022227E+02  0.12849429E+02
  0.12679933E+02  0.12513897E+02  0.12351468E+02  0.12192775E+02  0.12037929E+02
  0.11887023E+02  0.11740133E+02  0.11597312E+02  0.11458597E+02  0.11324004E+02
  0.11193529E+02  0.11067152E+02  0.10944829E+02  0.10826503E+02  0.10712096E+02
  0.10601516E+02  0.10494654E+02  0.10391386E+02  0.10291577E+02  0.10195079E+02
  0.10101732E+02  0.10011367E+02  0.99238102E+01  0.98388774E+01  0.97563816E+01
  0.96761320E+01  0.95979357E+01  0.95215996E+01  0.94469315E+01  0.93737416E+01
  0.93018440E+01  0.92310576E+01  0.91612078E+01  0.90921274E+01  0.90236572E+01
  0.89556478E+01  0.88879597E+01  0.88204645E+01  0.87530451E+01  0.86855968E+01
  0.86180273E+01  0.85502571E+01  0.84822198E+01  0.84138622E+01  0.83451439E+01
  0.82760377E+01  0.82065288E+01  0.81366148E+01  0.80663052E+01  0.79956206E+01
  0.79245927E+01  0.78532628E+01  0.77816819E+01  0.77099091E+01  0.76380115E+01
  0.75660628E+01  0.74941425E+01  0.74223350E+01  0.73507285E+01  0.72794141E+01
  0.72084848E+01  0.71380346E+01  0.70681572E+01  0.69989456E+01  0.69304908E+01
  0.68628811E+01  0.67962013E+01  0.67305320E+01  0.66659488E+01  0.66025218E+01
  0.65403147E+01  0.64793847E+01  0.64197818E+01  0.63615485E+01  0.63047194E+01
  0.62493214E+01  0.61953731E+01  0.61428849E+01  0.60918592E+01  0.60422903E+01
  0.59941647E+01  0.59474612E+01  0.59021513E+01  0.58581996E+01  0.58155639E+01
  0.57741959E+01  0.57340419E+01  0.56950427E+01  0.56571348E+01  0.56202508E+01
  0.55843199E+01  0.55492688E+01  0.55150221E+01  0.54815032E+01  0.54486346E+01
  0.54163390E+01  0.53845396E+01  0.53531608E+01  0.53221289E+01  0.52913722E+01
  0.52608223E+01  0.52304139E+01  0.52000856E+01  0.51697804E+01  0.51394456E+01
  0.51090336E+01  0.50785022E+01  0.50478143E+01  0.50169385E+01  0.49858490E+01
  0.49545259E+01  0.49229547E+01  0.48911269E+01  0.48590394E+01  0.48266945E+01
  0.47940999E+01  0.47612682E+01  0.47282168E+01  0.46949677E+01  0.46615469E+01
  0.46279842E+01  0.45943126E+01  0.45605683E+01  0.45267899E+01  0.44930179E+01
  0.44592947E+01  0.44256637E+01  0.43921690E+01  0.43588549E+01  0.43257657E+01
  0.42929451E+01  0.42604355E+01  0.42282783E+01  0.41965129E+01  0.41651764E+01
  0.41343038E+01  0.41039270E+01  0.40740751E+01  0.40447738E+01  0.40160455E+01
  0.39879089E+01  0.39603791E+01  0.39334673E+01  0.39071811E+01  0.38815242E+01
  0.38564962E+01  0.38320935E+01  0.38083084E+01  0.37851299E+01  0.37625435E+01
  0.37405317E+01  0.37190738E+01  0.36981465E+01  0.36777240E+01  0.36577783E+01
  0.36382796E+01  0.36191961E+01  0.36004953E+01  0.35821431E+01  0.35641051E+01
  0.35463465E+01  0.35288322E+01  0.35115275E+01  0.34943983E+01  0.34774111E+01
  0.34605338E+01  0.34437354E+01  0.34269866E+01  0.34102600E+01  0.33935301E+01
  0.33767737E+01  0.33599698E+01  0.33431000E+01  0.33261484E+01  0.33091018E+01
  0.32919494E+01  0.32746836E+01  0.32572990E+01  0.32397931E+01  0.32221661E+01
  0.32044205E+01  0.31865616E+01  0.31685967E+01  0.31505355E+01  0.31323896E+01
  0.31141727E+01  0.30958999E+01  0.30775878E+01  0.30592544E+01  0.30409187E+01
  0.30226005E+01  0.30043203E+01  0.29860988E+01  0.29679573E+01  0.29499166E+01
  0.29319975E+01  0.29142203E+01  0.28966046E+01  0.28791692E+01  0.28619319E+01
  0.28449093E+01  0.28281166E+01  0.28115676E+01  0.27952745E+01  0.27792479E+01
  0.27634967E+01  0.27480279E+01  0.27328468E+01  0.27179568E+01  0.27033593E+01
  0.26890542E+01  0.26750393E+01  0.26613108E+01  0.26478631E+01  0.26346890E+01
  0.26217799E+01  0.26091257E+01  0.25967150E+01  0.25845354E+01  0.25725733E+01
  0.25608144E+01  0.25492437E+01  0.25378455E+01  0.25266038E+01  0.25155022E+01
  0.25045245E+01  0.24936543E+01  0.24828756E+01  0.24721725E+01  0.24615298E+01
  0.24509330E+01  0.24403683E+01  0.24298227E+01  0.24192842E+01  0.24087419E+01
  0.23981862E+01  0.23876083E+01  0.23770011E+01  0.23663584E+01  0.23556756E+01
  0.23449493E+01  0.23341774E+01  0.23233592E+01  0.23124952E+01  0.23015873E+01
  0.22906384E+01  0.22796527E+01  0.22686352E+01  0.22575923E+01  0.22465308E+01
  0.22354587E+01  0.22243843E+01  0.22133167E+01  0.22022654E+01  0.21912403E+01
  0.21802514E+01  0.21693090E+01  0.21584232E+01  0.21476042E+01  0.21368618E+01
  0.21262057E+01  0.21156450E+01  0.21051883E+01  0.20948436E+01  0.20846182E+01
  0.20745188E+01  0.20645512E+01  0.20547201E+01  0.20450298E+01  0.20354833E+01
  0.20260828E+01  0.20168294E+01  0.20077234E+01  0.19987642E+01  0.19899501E+01
  0.19812786E+01  0.19727462E+01  0.19643487E+01  0.19560812E+01  0.19479379E+01
  0.19399125E+01  0.19319982E+01  0.19241876E+01  0.19164729E+01  0.19088461E+01
  0.19012989E+01  0.18938228E+01  0.18864094E+01  0.18790501E+01  0.18717367E+01
  0.18644609E+01  0.18572150E+01  0.18499913E+01  0.18427827E+01  0.18355827E+01
  0.18283853E+01  0.18211849E+01  0.18139769E+01  0.18067570E+01  0.17995219E+01
  0.17922690E+01  0.17849963E+01  0.17777027E+01  0.17703878E+01  0.17630519E+01
  0.17556960E+01  0.17483220E+01  0.17409324E+01  0.17335301E+01  0.17261189E+01
  0.17187031E+01  0.17112872E+01  0.17038764E+01  0.16964762E+01  0.16890923E+01
  0.16817307E+01  0.16743975E+01  0.16670989E+01  0.16598411E+01  0.16526302E+01
  0.16454723E+01  0.16383732E+01  0.16313384E+01  0.16243732E+01  0.16174825E+01
  0.16106705E+01  0.16039414E+01  0.15972985E+01  0.15907445E+01  0.15842819E+01
  0.15779123E+01  0.15716366E+01  0.15654553E+01  0.15593681E+01  0.15533743E+01
  0.15474723E+01  0.15416601E+01  0.15359349E+01  0.15302936E+01  0.15247325E+01
  0.15192472E+01  0.15138333E+01  0.15084855E+01  0.15031987E+01  0.14979672E+01
  0.14927851E+01  0.14876464E+01  0.14825452E+01  0.14774752E+01  0.14724305E+01
  0.14674050E+01  0.14623930E+01  0.14573888E+01  0.14523870E+01  0.14473826E+01
  0.14423709E+01  0.14373477E+01  0.14323092E+01  0.14272521E+01  0.14221736E+01
  0.14170714E+01  0.14119438E+01  0.14067899E+01  0.14016089E+01  0.13964010E+01
  0.13911668E+01  0.13859075E+01  0.13806247E+01  0.13753209E+01  0.13699987E+01
  0.13646614E+01  0.13593126E+01  0.13539565E+01  0.13485974E+01  0.13432400E+01
  0.13378894E+01  0.13325506E+01  0.13272289E+01  0.13219298E+01  0.13166584E+01
  0.13114203E+01  0.13062207E+01  0.13010646E+01  0.12959571E+01  0.12909028E+01
  0.12859061E+01  0.12809710E+01  0.12761013E+01  0.12713001E+01  0.12665704E+01
  0.12619143E+01  0.12573336E+01  0.12528298E+01  0.12484034E+01  0.12440548E+01
  0.12397835E+01  0.12355887E+01  0.12314690E+01  0.12274225E+01  0.12234467E+01
  0.12195387E+01  0.12156952E+01  0.12119124E+01  0.12081861E+01  0.12045119E+01
  0.12008850E+01  0.11973004E+01  0.11937527E+01  0.11902368E+01  0.11867470E+01
  0.11832779E+01  0.11798240E+01  0.11763800E+01  0.11729404E+01  0.11695001E+01
  0.11660542E+01  0.11625980E+01  0.11591270E+01  0.11556374E+01  0.11521254E+01
  0.11485877E+01  0.11450216E+01  0.11414248E+01  0.11377954E+01  0.11341321E+01
  0.11304341E+01  0.11267011E+01  0.11229332E+01  0.11191312E+01  0.11152964E+01
  0.11114303E+01  0.11075352E+01  0.11036138E+01  0.10996690E+01  0.10957043E+01
  0.10917234E+01  0.10877305E+01  0.10837299E+01  0.10797262E+01  0.10757241E+01
  0.10717286E+01  0.10677445E+01  0.10637769E+01  0.10598308E+01  0.10559111E+01
  0.10520225E+01  0.10481698E+01  0.10443573E+01  0.10405894E+01  0.10368698E+01
  0.10332023E+01  0.10295900E+01  0.10260358E+01  0.10225422E+01  0.10191110E+01
  0.10157439E+01  0.10124419E+01  0.10092056E+01  0.10060351E+01  0.10029300E+01
  0.99988962E+00  0.99691253E+00  0.99399699E+00  0.99114083E+00  0.98834143E+00
  0.98559579E+00  0.98290055E+00  0.98025204E+00  0.97764629E+00  0.97507907E+00
  0.97254595E+00  0.97004235E+00  0.96756355E+00  0.96510475E+00  0.96266113E+00
  0.96022786E+00  0.95780019E+00  0.95537345E+00  0.95294310E+00  0.95050480E+00
  0.94805443E+00  0.94558810E+00  0.94310226E+00  0.94059366E+00  0.93805941E+00
  0.93549700E+00  0.93290432E+00  0.93027966E+00  0.92762176E+00  0.92492978E+00
  0.92220331E+00  0.91944240E+00  0.91664752E+00  0.91381958E+00  0.91095988E+00
  0.90807017E+00  0.90515254E+00  0.90220946E+00  0.89924374E+00  0.89625849E+00
  0.89325708E+00  0.89024313E+00  0.88722045E+00  0.88419302E+00  0.88116492E+00
  0.87814035E+00  0.87512352E+00  0.87211867E+00  0.86912998E+00  0.86616158E+00
  0.86321747E+00  0.86030150E+00  0.85741734E+00  0.85456843E+00  0.85175795E+00
  0.84898881E+00  0.84626360E+00  0.84358457E+00  0.84095364E+00  0.83837235E+00
  0.83584186E+00  0.83336297E+00  0.83093606E+00  0.82856113E+00  0.82623781E+00
  0.82396532E+00  0.82174251E+00  0.81956787E+00  0.81743955E+00  0.81535537E+00
  0.81331283E+00  0.81130919E+00  0.80934142E+00  0.80740630E+00  0.80550042E+00
  0.80362021E+00  0.80176198E+00  0.79992196E+00  0.79809634E+00  0.79628126E+00
  0.79447292E+00  0.79266756E+00  0.79086150E+00  0.78905120E+00  0.78723325E+00
  0.78540447E+00  0.78356185E+00  0.78170266E+00  0.77982440E+00  0.77792489E+00
  0.77600222E+00  0.77405481E+00  0.77208141E+00  0.77008109E+00  0.76805326E+00
  0.76599769E+00  0.76391447E+00  0.76180404E+00  0.75966717E+00  0.75750493E+00
  0.75531873E+00  0.75311024E+00  0.75088141E+00  0.74863444E+00  0.74637175E+00
  0.74409596E+00  0.74180986E+00  0.73951637E+00  0.73721853E+00  0.73491948E+00
  0.73262239E+00  0.73033045E+00  0.72804688E+00  0.72577482E+00  0.72351736E+00
  0.72127749E+00  0.71905808E+00  0.71686184E+00  0.71469129E+00  0.71254879E+00
  0.71043643E+00  0.70835609E+00  0.70630940E+00  0.70429772E+00  0.70232212E+00
  0.70038342E+00  0.69848213E+00  0.69661847E+00  0.69479239E+00  0.69300352E+00
  0.69125124E+00  0.68953465E+00  0.68785256E+00  0.68620358E+00  0.68458605E+00
  0.68299812E+00  0.68143774E+00  0.67990269E+00  0.67839060E+00  0.67689898E+00
  0.67542524E+00  0.67396671E+00  0.67252069E+00  0.67108442E+00  0.66965518E+00
  0.66823025E+00  0.66680697E+00  0.66538278E+00  0.66395519E+00  0.66252185E+00
  0.66108057E+00  0.65962931E+00  0.65816622E+00  0.65668963E+00  0.65519809E+00
  0.65369039E+00  0.65216550E+00  0.65062268E+00  0.64906139E+00  0.64748134E+00
  0.64588250E+00  0.64426505E+00  0.64262942E+00  0.64097628E+00  0.63930649E+00
  0.63762114E+00  0.63592150E+00  0.63420901E+00  0.63248528E+00  0.63075206E+00
  0.62901121E+00  0.62726470E+00  0.62551460E+00  0.62376301E+00  0.62201209E+00
  0.62026401E+00  0.61852096E+00  0.61678507E+00  0.61505845E+00  0.61334314E+00
  0.61164109E+00  0.60995415E+00  0.60828403E+00  0.60663233E+00  0.60500049E+00
  0.60338979E+00  0.60180132E+00  0.60023601E+00  0.59869461E+00  0.59717766E+00
  0.59568550E+00  0.59421830E+00  0.59277601E+00  0.59135839E+00  0.58996501E+00
  0.58859527E+00  0.58724838E+00  0.58592339E+00  0.58461920E+00  0.58333457E+00
  0.58206814E+00  0.58081844E+00  0.57958389E+00  0.57836286E+00  0.57715363E+00
  0.57595446E+00  0.57476356E+00  0.57357917E+00  0.57239949E+00  0.57122279E+00
  0.57004735E+00  0.56887154E+00  0.56769379E+00  0.56651262E+00  0.56532667E+00
  0.56413468E+00  0.56293553E+00  0.56172823E+00  0.56051193E+00  0.55928592E+00
  0.55804968E+00  0.55680280E+00  0.55554507E+00  0.55427641E+00  0.55299691E+00
  0.55170683E+00  0.55040654E+00  0.54909659E+00  0.54777767E+00  0.54645056E+00
  0.54511618E+00  0.54377555E+00  0.54242980E+00  0.54108010E+00  0.53972771E+00
  0.53837395E+00  0.53702016E+00  0.53566771E+00  0.53431799E+00  0.53297237E+00
  0.53163220E+00  0.53029882E+00  0.52897350E+00  0.52765744E+00  0.52635180E+00
  0.52505762E+00  0.52377587E+00  0.52250740E+00  0.52125297E+00  0.52001320E+00
  0.51878861E+00  0.51757958E+00  0.51638636E+00  0.51520909E+00  0.51404776E+00
  0.51290223E+00  0.51177226E+00  0.51065745E+00  0.50955731E+00  0.50847123E+00
  0.50739851E+00  0.50633833E+00  0.50528981E+00  0.50425200E+00  0.50322387E+00
  0.50220434E+00  0.50119232E+00  0.50018665E+00  0.49918619E+00  0.49818978E+00
  0.49719627E+00  0.49620454E+00  0.49521349E+00  0.49422206E+00  0.49322927E+00
  0.49223420E+00  0.49123597E+00  0.49023384E+00  0.48922711E+00  0.48821521E+00
  0.48719765E+00  0.48617405E+00  0.48514415E+00  0.48410778E+00  0.48306490E+00
  0.48201556E+00  0.48095993E+00  0.47989828E+00  0.47883099E+00  0.47775853E+00
  0.47668146E+00  0.47560043E+00  0.47451616E+00  0.47342943E+00  0.47234109E+00
  0.47125204E+00  0.47016319E+00  0.46907550E+00  0.46798994E+00  0.46690749E+00
  0.46582912E+00  0.46475579E+00  0.46368842E+00  0.46262790E+00  0.46157509E+00
  0.46053078E+00  0.45949569E+00  0.45847047E+00  0.45745571E+00  0.45645189E+00
  0.45545941E+00  0.45447857E+00  0.45350960E+00  0.45255259E+00  0.45160756E+00
  0.45067442E+00  0.44975300E+00  0.44884300E+00  0.44794405E+00  0.44705569E+00
  0.44617737E+00  0.44530847E+00  0.44444829E+00  0.44359606E+00  0.44275099E+00
  0.44191220E+00  0.44107880E+00  0.44024988E+00  0.43942449E+00  0.43860168E+00
  0.43778053E+00  0.43696010E+00  0.43613948E+00  0.43531780E+00  0.43449423E+00
  0.43366799E+00  0.43283834E+00  0.43200464E+00  0.43116631E+00  0.43032282E+00
  0.42947378E+00  0.42861885E+00  0.42775779E+00  0.42689046E+00  0.42601681E+00
  0.42513689E+00  0.42425084E+00  0.42335890E+00  0.42246139E+00  0.42155874E+00
  0.42065143E+00  0.41974006E+00  0.41882526E+00  0.41790776E+00  0.41698833E+00
  0.41606779E+00  0.41514699E+00  0.41422685E+00  0.41330826E+00  0.41239216E+00
 gradient corrections used for XC
           5
 core charge-density (partial)
  0.17974281E+01  0.17966830E+01  0.17944493E+01  0.17907322E+01  0.17855403E+01
  0.17788856E+01  0.17707834E+01  0.17612524E+01  0.17503143E+01  0.17379943E+01
  0.17243202E+01  0.17093231E+01  0.16930368E+01  0.16754978E+01  0.16567453E+01
  0.16368208E+01  0.16157680E+01  0.15936331E+01  0.15704640E+01  0.15463103E+01
  0.15212236E+01  0.14952566E+01  0.14684637E+01  0.14408999E+01  0.14126215E+01
  0.13836855E+01  0.13541493E+01  0.13240708E+01  0.12935082E+01  0.12625195E+01
  0.12311627E+01  0.11994954E+01  0.11675749E+01  0.11354577E+01  0.11031995E+01
  0.10708551E+01  0.10384784E+01  0.10061218E+01  0.97383656E+00  0.94167234E+00
  0.90967737E+00  0.87789814E+00  0.84637940E+00  0.81516407E+00  0.78429315E+00
  0.75380563E+00  0.72373849E+00  0.69412662E+00  0.66500276E+00  0.63639752E+00
  0.60833930E+00  0.58085434E+00  0.55396665E+00  0.52769806E+00  0.50206819E+00
  0.47709452E+00  0.45279236E+00  0.42917491E+00  0.40625329E+00  0.38403659E+00
  0.36253190E+00  0.34174440E+00  0.32167737E+00  0.30233228E+00  0.28370886E+00
  0.26580517E+00  0.24861766E+00  0.23214124E+00  0.21636940E+00  0.20129422E+00
  0.18690654E+00  0.17319594E+00  0.16015093E+00  0.14775893E+00  0.13600645E+00
  0.12487909E+00  0.11436167E+00  0.10443832E+00  0.95092510E-01  0.86307181E-01
  0.78064793E-01  0.70347410E-01  0.63136770E-01  0.56414359E-01  0.50161477E-01
  0.44359303E-01  0.38988960E-01  0.34031576E-01  0.29468336E-01  0.25280542E-01
  0.21449661E-01  0.17957373E-01  0.14785616E-01  0.11916627E-01  0.93329816E-02
  0.70176269E-02  0.49539151E-02  0.31256317E-02  0.15170209E-02  0.11280861E-03
 -0.11017779E-02 -0.21409933E-02 -0.30185603E-02 -0.37476579E-02 -0.43409129E-02
 -0.48103939E-02 -0.51676070E-02 -0.54234946E-02 -0.55884357E-02 -0.56722486E-02
 -0.56841958E-02 -0.56329895E-02 -0.55268005E-02 -0.53732671E-02 -0.51795061E-02
 -0.49521253E-02 -0.46972368E-02 -0.44204712E-02 -0.41269933E-02 -0.38215179E-02
 -0.35083270E-02 -0.31912871E-02 -0.28738673E-02 -0.25591574E-02 -0.22498864E-02
 -0.19484418E-02 -0.16568879E-02 -0.13769850E-02 -0.11102082E-02 -0.85776596E-03
 -0.62061866E-03 -0.39949671E-03 -0.19491843E-03 -0.72074695E-05  0.16349020E-03
  0.31718978E-03  0.45405167E-03  0.57436607E-03  0.67853821E-03  0.76707414E-03
  0.84056724E-03  0.89968532E-03  0.94515851E-03  0.97776773E-03  0.99833388E-03
  0.10077078E-02  0.10067610E-02  0.99637655E-03  0.97744159E-03  0.95083967E-03
  0.91744419E-03  0.87811237E-03  0.83367988E-03  0.78495604E-03  0.73271969E-03
  0.67771555E-03  0.62065117E-03  0.56219443E-03  0.50297144E-03  0.44356503E-03
  0.38451360E-03  0.32631042E-03  0.26940329E-03  0.21419457E-03  0.16104161E-03
  0.11025732E-03  0.62111199E-04  0.16830465E-04 -0.25398493E-04 -0.64428532E-04
 -0.10014997E-03 -0.13248868E-03 -0.16140403E-03 -0.18688677E-03 -0.20895681E-03
 -0.22766093E-03 -0.24307054E-03 -0.25527928E-03 -0.26440076E-03 -0.27056622E-03
 -0.27392230E-03 -0.27462876E-03 -0.27285637E-03 -0.26878473E-03 -0.26260034E-03
 -0.25449460E-03 -0.24466197E-03 -0.23329829E-03 -0.22059906E-03 -0.20675801E-03
 -0.19196562E-03 -0.17640789E-03 -0.16026512E-03 -0.14371089E-03 -0.12691112E-03
 -0.11002325E-03 -0.93195553E-04 -0.76566545E-04 -0.60264504E-04 -0.44407110E-04
 -0.29101179E-04 -0.14442497E-04 -0.51574812E-06  0.12605473E-04  0.24858559E-04
  0.36191717E-04  0.46563725E-04  0.55943615E-04  0.64310309E-04  0.71652196E-04
  0.77966659E-04  0.83259575E-04  0.87544764E-04  0.90843423E-04  0.93183531E-04
  0.94599238E-04  0.95130246E-04  0.94821178E-04  0.93720951E-04  0.91882149E-04
  0.89360403E-04  0.86213791E-04  0.82502239E-04  0.78286954E-04  0.73629871E-04
  0.68593131E-04  0.63238583E-04  0.57627311E-04  0.51819204E-04  0.45872546E-04
  0.39843649E-04  0.33786517E-04  0.27752545E-04  0.21790255E-04  0.15945070E-04
  0.10259118E-04  0.47710750E-05 -0.48395638E-06 -0.54745384E-05 -0.10172955E-04
 -0.14555237E-04 -0.18601161E-04 -0.22294213E-04 -0.25621533E-04 -0.28573832E-04
 -0.31145282E-04 -0.33333395E-04 -0.35138869E-04 -0.36565430E-04 -0.37619654E-04
 -0.38310772E-04 -0.38650472E-04 -0.38652687E-04 -0.38333377E-04 -0.37710308E-04
 -0.36802823E-04 -0.35631622E-04 -0.34218531E-04 -0.32586279E-04 -0.30758278E-04
 -0.28758412E-04 -0.26610824E-04 -0.24339716E-04 -0.21969161E-04 -0.19522918E-04
 -0.17024264E-04 -0.14495833E-04 -0.11959467E-04 -0.94360874E-05 -0.69455696E-05
 -0.45066364E-05 -0.21367645E-05  0.14789584E-06  0.23325874E-05  0.44039987E-05
  0.63503036E-05  0.81611876E-05  0.98278619E-05  0.11343064E-04  0.12701050E-04
  0.13897568E-04  0.14929833E-04  0.15796480E-04  0.16497516E-04  0.17034261E-04
  0.17409280E-04  0.17626312E-04  0.17690190E-04  0.17606756E-04  0.17382777E-04
  0.17025849E-04  0.16544305E-04  0.15947120E-04  0.15243814E-04  0.14444357E-04
  0.13559070E-04  0.12598531E-04  0.11573485E-04  0.10494751E-04  0.93731351E-05
  0.82193488E-05  0.70439272E-05  0.58571560E-05  0.46690008E-05  0.34890425E-05
  0.23264185E-05  0.11897691E-05  0.87190184E-07 -0.97380840E-06 -0.19863380E-05
 -0.29441602E-05 -0.38417102E-05 -0.46741135E-05 -0.54371973E-05 -0.61274953E-05
 -0.67422479E-05 -0.72793961E-05 -0.77375710E-05 -0.81160777E-05 -0.84148754E-05
 -0.86345528E-05 -0.87762996E-05 -0.88418747E-05 -0.88335715E-05 -0.87541795E-05
 -0.86069446E-05 -0.83955268E-05 -0.81239563E-05 -0.77965887E-05 -0.74180594E-05
 -0.69932367E-05 -0.65271765E-05 -0.60250751E-05 -0.54922247E-05 -0.49339684E-05
 -0.43556571E-05 -0.37626074E-05 -0.31600622E-05 -0.25531521E-05 -0.19468596E-05
 -0.13459864E-05 -0.75512187E-06 -0.17861530E-06  0.37944939E-06  0.91527598E-06
  0.14253753E-05  0.19065816E-05  0.23560656E-05  0.27713451E-05  0.31502918E-05
  0.34911357E-05  0.37924667E-05  0.40532327E-05  0.42727359E-05  0.44506259E-05
  0.45868907E-05  0.46818450E-05  0.47361172E-05  0.47506334E-05  0.47266004E-05
  0.46654873E-05  0.45690046E-05  0.44390834E-05  0.42778529E-05  0.40876176E-05
  0.38708331E-05  0.36300825E-05  0.33680522E-05  0.30875074E-05  0.27912684E-05
  0.24821868E-05  0.21631222E-05  0.18369204E-05  0.15063910E-05  0.11742875E-05
  0.84328718E-06  0.51597343E-06  0.19481824E-06 -0.11783315E-06 -0.41977642E-06
 -0.70896076E-06 -0.98349990E-06 -0.12416815E-05 -0.14819750E-05 -0.17030375E-05
 -0.19037188E-05 -0.20830635E-05 -0.22403133E-05 -0.23749057E-05 -0.24864731E-05
 -0.25748391E-05 -0.26400145E-05 -0.26821907E-05 -0.27017334E-05 -0.26991738E-05
 -0.26752002E-05 -0.26306470E-05 -0.25664844E-05 -0.24838067E-05 -0.23838198E-05
 -0.22678288E-05 -0.21372248E-05 -0.19934715E-05 -0.18380916E-05 -0.16726537E-05
 -0.14987582E-05 -0.13180243E-05 -0.11320769E-05 -0.94253400E-06 -0.75099383E-06
 -0.55902365E-06 -0.36814825E-06 -0.17983945E-06  0.44937621E-08  0.18351429E-06
  0.35596518E-06  0.52067706E-06  0.67657463E-06  0.82268225E-06  0.95812869E-06
  0.10821508E-05  0.11940964E-05  0.12934260E-05  0.13797141E-05  0.14526487E-05
  0.15120311E-05  0.15577738E-05  0.15898983E-05  0.16085315E-05  0.16139024E-05
  0.16063366E-05  0.15862520E-05  0.15541523E-05  0.15106211E-05  0.14563147E-05
  0.13919558E-05  0.13183254E-05  0.12362552E-05  0.11466203E-05  0.10503305E-05
  0.94832297E-06  0.84155379E-06  0.73099031E-06  0.61760323E-06  0.50235904E-06
  0.38621268E-06  0.27010042E-06  0.15493312E-06  0.41589931E-07 -0.69087731E-07
 -0.17630164E-06 -0.27930180E-06 -0.37739093E-06 -0.46992852E-06 -0.55633421E-06
 -0.63609073E-06 -0.70874622E-06 -0.77391601E-06 -0.83128381E-06 -0.88060239E-06
 -0.92169368E-06 -0.95444831E-06 -0.97882472E-06 -0.99484765E-06 -0.10026063E-05
 -0.10022519E-05 -0.99399512E-06 -0.97810253E-06 -0.95489350E-06 -0.92473618E-06
 -0.88804343E-06 -0.84526849E-06 -0.79690046E-06 -0.74345957E-06 -0.68549242E-06
 -0.62356702E-06 -0.55826793E-06 -0.49019125E-06 -0.41993976E-06 -0.34811811E-06
 -0.27532803E-06 -0.20216383E-06 -0.12920792E-06 -0.57026649E-07  0.13833684E-07
  0.82850576E-07  0.14952875E-06  0.21340334E-06  0.27404268E-06  0.33105090E-06
  0.38407005E-06  0.43278197E-06  0.47690976E-06  0.51621892E-06  0.55051814E-06
  0.57965972E-06  0.60353965E-06  0.62209738E-06  0.63531520E-06  0.64321740E-06
  0.64586900E-06  0.64337435E-06  0.63587530E-06  0.62354930E-06  0.60660707E-06
  0.58529027E-06  0.55986886E-06  0.53063833E-06  0.49791684E-06  0.46204219E-06
  0.42336879E-06  0.38226448E-06  0.33910741E-06  0.29428286E-06  0.24818009E-06
  0.20118923E-06  0.15369829E-06  0.10609014E-06  0.58739725E-07  0.12011322E-07
 -0.33744021E-07 -0.78190892E-07 -0.12101175E-06 -0.16190899E-06 -0.20060672E-06
 -0.23685250E-06 -0.27041866E-06 -0.30110355E-06 -0.32873249E-06 -0.35315853E-06
 -0.37426291E-06 -0.39195537E-06 -0.40617423E-06 -0.41688617E-06 -0.42408588E-06
 -0.42779546E-06 -0.42806366E-06 -0.42496487E-06 -0.41859799E-06 -0.40908514E-06
 -0.39657015E-06 -0.38121702E-06 -0.36320815E-06 -0.34274259E-06 -0.32003407E-06
 -0.29530905E-06 -0.26880471E-06 -0.24076684E-06 -0.21144779E-06 -0.18110434E-06
 -0.14999565E-06 -0.11838119E-06 -0.86518722E-07 -0.54662356E-07 -0.23060660E-07
  0.80451415E-08  0.38422872E-07  0.67851006E-07  0.96120148E-07  0.12303439E-06
  0.14841255E-06  0.17208923E-06  0.19391578E-06  0.21376110E-06  0.23151223E-06
  0.24707489E-06  0.26037379E-06  0.27135283E-06  0.27997507E-06  0.28622269E-06
  0.29009667E-06  0.29161640E-06  0.29081915E-06  0.28775942E-06  0.28250813E-06
  0.27515173E-06  0.26579124E-06  0.25454113E-06  0.24152819E-06  0.22689026E-06
  0.21077495E-06  0.19333832E-06  0.17474346E-06  0.15515911E-06  0.13475822E-06
  0.11371656E-06  0.92211273E-07  0.70419481E-07  0.48516935E-07  0.26676666E-07
  0.50677110E-08 -0.16146113E-07 -0.36807373E-07 -0.56766101E-07 -0.75880809E-07
 -0.94019408E-07 -0.11106004E-06 -0.12689182E-06 -0.14141545E-06 -0.15454379E-06
 -0.16620228E-06 -0.17632921E-06 -0.18487604E-06 -0.19180742E-06 -0.19710125E-06
 -0.20074860E-06 -0.20275346E-06 -0.20313252E-06 -0.20191474E-06 -0.19914092E-06
 -0.19486312E-06 -0.18914406E-06 -0.18205643E-06 -0.17368211E-06 -0.16411136E-06
 -0.15344199E-06 -0.14177841E-06 -0.12923075E-06 -0.11591384E-06 -0.10194627E-06
 -0.87449396E-07 -0.72546326E-07 -0.57360962E-07 -0.42017011E-07 -0.26637039E-07
 -0.11341542E-07  0.37519431E-08  0.18529691E-07  0.32882596E-07  0.46706925E-07
  0.59905015E-07  0.72385920E-07  0.84065977E-07  0.94869323E-07  0.10472833E-06
  0.11358396E-06  0.12138610E-06  0.12809371E-06  0.13367506E-06  0.13810771E-06
  0.14137859E-06  0.14348385E-06  0.14442878E-06  0.14422756E-06  0.14290302E-06
  0.14048625E-06  0.13701627E-06  0.13253952E-06  0.12710940E-06  0.12078574E-06
  0.11363417E-06  0.10572556E-06  0.97135332E-07  0.87942834E-07  0.78230617E-07
  0.68083761E-07  0.57589164E-07  0.46834838E-07  0.35909208E-07  0.24900423E-07
  0.13895677E-07  0.29805543E-08 -0.77616040E-08 -0.18250303E-07 -0.28408465E-07
 -0.38162963E-07 -0.47445115E-07 -0.56191138E-07 -0.64342547E-07 -0.71846516E-07
 -0.78656185E-07 -0.84730916E-07 -0.90036492E-07 -0.94545273E-07 -0.98236288E-07
 -0.10109528E-06 -0.10311470E-06 -0.10429364E-06 -0.10463772E-06 -0.10415896E-06
 -0.10287552E-06 -0.10081150E-06 -0.97996624E-07 -0.94465919E-07 -0.90259350E-07
 -0.85421427E-07 -0.80000776E-07 -0.74049697E-07 -0.67623695E-07 -0.60780989E-07
 -0.53582025E-07 -0.46088959E-07 -0.38365158E-07 -0.30474680E-07 -0.22481771E-07
 -0.14450367E-07 -0.64436016E-08  0.14766674E-08  0.92503126E-08  0.16819373E-07
  0.24128467E-07  0.31125170E-07  0.37760379E-07  0.43988626E-07  0.49768373E-07
  0.55062264E-07  0.59837344E-07  0.64065239E-07  0.67722296E-07  0.70789689E-07
  0.73253480E-07  0.75104646E-07  0.76339065E-07  0.76957466E-07  0.76965344E-07
  0.76372833E-07  0.75194553E-07  0.73449422E-07  0.71160438E-07  0.68354432E-07
  0.65061797E-07  0.61316194E-07  0.57154239E-07  0.52615170E-07  0.47740498E-07
  0.42573652E-07  0.37159611E-07  0.31544527E-07  0.25775356E-07  0.19899474E-07
  0.13964310E-07  0.80169746E-08  0.21039029E-08 -0.37294935E-08 -0.94391611E-08
 -0.14982723E-07 -0.20319779E-07 -0.25412186E-07 -0.30224316E-07 -0.34723290E-07
 -0.38879188E-07 -0.42665235E-07 -0.46057953E-07 -0.49037290E-07 -0.51586723E-07
 -0.53693328E-07 -0.55347817E-07 -0.56544559E-07 -0.57281560E-07 -0.57560421E-07
 -0.57386270E-07 -0.56767664E-07 -0.55716468E-07 -0.54247715E-07 -0.52379431E-07
 -0.50132458E-07 -0.47530240E-07 -0.44598605E-07 -0.41365528E-07 -0.37860877E-07
 -0.34116156E-07 -0.30164236E-07 -0.26039073E-07 -0.21775439E-07 -0.17408630E-07
 -0.12974193E-07 -0.85076413E-08 -0.40441842E-08  0.38154164E-09  0.47357312E-08
  0.89856593E-08  0.13099917E-07  0.17048632E-07  0.20803681E-07  0.24338873E-07
  0.27630127E-07  0.30655625E-07  0.33395942E-07  0.35834165E-07  0.37955979E-07
  0.39749745E-07  0.41206540E-07  0.42320194E-07  0.43087286E-07  0.43507136E-07
  0.43581766E-07  0.43315841E-07  0.42716595E-07  0.41793735E-07  0.40559329E-07
  0.39027678E-07  0.37215169E-07  0.35140117E-07  0.32822598E-07  0.30284262E-07
  0.27548146E-07  0.24638472E-07  0.21580445E-07  0.18400041E-07  0.15123796E-07
  0.11778589E-07  0.83914363E-08  0.49892727E-08  0.15987495E-08 -0.17539691E-08
 -0.50434010E-08 -0.82449325E-08 -0.11334996E-07 -0.14291238E-07 -0.17092671E-07
 -0.19719817E-07 -0.22154838E-07 -0.24381646E-07 -0.26386004E-07 -0.28155607E-07
 -0.29680152E-07 -0.30951384E-07 -0.31963133E-07 -0.32711329E-07 -0.33194005E-07
 -0.33411279E-07 -0.33365326E-07 -0.33060326E-07 -0.32502408E-07 -0.31699571E-07
 -0.30661595E-07 -0.29399942E-07 -0.27927642E-07 -0.26259165E-07 -0.24410297E-07
 -0.22397991E-07 -0.20240224E-07 -0.17955841E-07 -0.15564398E-07 -0.13086000E-07
 -0.10541135E-07 -0.79505178E-08 -0.53349171E-08 -0.27150009E-08 -0.11117542E-09
  0.24565686E-08  0.49688043E-08  0.74068109E-08  0.97527088E-08  0.11989585E-07
  0.14101612E-07  0.16074152E-07  0.17893855E-07  0.19548744E-07  0.21028289E-07
  0.22323466E-07  0.23426804E-07  0.24332427E-07  0.25036071E-07  0.25535098E-07
  0.25828492E-07  0.25916844E-07  0.25802327E-07  0.25488652E-07  0.24981026E-07
  0.24286083E-07  0.23411817E-07  0.22367502E-07  0.21163598E-07  0.19811660E-07
  0.18324227E-07  0.16714717E-07  0.14997307E-07  0.13186815E-07  0.11298578E-07
  0.93483218E-08  0.73520378E-08  0.53258548E-08  0.32859120E-08  0.12482343E-08
 -0.77139017E-09 -0.27575287E-08 -0.46952185E-08 -0.65700762E-08 -0.83684009E-08
 -0.10077271E-07 -0.11684633E-07 -0.13179385E-07 -0.14551445E-07 -0.15791822E-07
 -0.16892662E-07 -0.17847303E-07 -0.18650302E-07 -0.19297466E-07 -0.19785865E-07
 -0.20113839E-07 -0.20280992E-07 -0.20288181E-07 -0.20137490E-07 -0.19832198E-07
 -0.19376738E-07 -0.18776647E-07 -0.18038511E-07 -0.17169893E-07 -0.16179272E-07
 -0.15075954E-07 -0.13869999E-07 -0.12572126E-07 -0.11193625E-07 -0.97462614E-08
 -0.82421779E-08 -0.66937970E-08 -0.51137201E-08 -0.35146284E-08 -0.19091832E-08
 -0.30992870E-09  0.12708035E-08  0.28209872E-08  0.43289904E-08  0.57836602E-08
  0.71744026E-08  0.84912574E-08  0.97249666E-08  0.10867037E-07  0.11909796E-07
  0.12846440E-07  0.13671077E-07  0.14378757E-07  0.14965501E-07  0.15428320E-07
  0.15765222E-07  0.15975217E-07  0.16058310E-07  0.16015490E-07  0.15848709E-07
  0.15560853E-07  0.15155710E-07  0.14637928E-07  0.14012966E-07  0.13287045E-07
  0.12467090E-07  0.11560664E-07  0.10575902E-07  0.95214460E-08  0.84063642E-08
  0.72400809E-08  0.60322968E-08  0.47929108E-08  0.35319412E-08  0.22594464E-08
  0.98544677E-09 -0.28015231E-09 -0.15276358E-08 -0.27475514E-08 -0.39307797E-08
 -0.50686004E-08 -0.61527544E-08 -0.71755025E-08 -0.81296779E-08 -0.90087353E-08
 -0.98067930E-08 -0.10518671E-07 -0.11139920E-07 -0.11666851E-07 -0.12096549E-07
 -0.12426891E-07 -0.12656547E-07 -0.12784987E-07 -0.12812470E-07 -0.12740033E-07
 -0.12569475E-07 -0.12303334E-07 -0.11944855E-07 -0.11497960E-07 -0.10967206E-07
 -0.10357744E-07 -0.96752709E-08 -0.89259806E-08 -0.81165066E-08 -0.72538682E-08
 -0.63454098E-08 -0.53987410E-08 -0.44216744E-08 -0.34221621E-08 -0.24082333E-08
 -0.13879306E-08 -0.36924786E-09  0.63993075E-09  0.16318908E-08  0.25991451E-08
  0.35344885E-08  0.44310508E-08  0.52823453E-08  0.60823145E-08  0.68253718E-08
  0.75064391E-08  0.81209795E-08  0.86650265E-08  0.91352071E-08  0.95287615E-08
  0.98435563E-08  0.10078094E-07  0.10231517E-07  0.10303605E-07  0.10294773E-07
 kinetic energy density (partial)
  0.19178290E+03  0.19170390E+03  0.19146708E+03  0.19107298E+03  0.19052252E+03
  0.18981694E+03  0.18895786E+03  0.18794723E+03  0.18678736E+03  0.18548087E+03
  0.18403071E+03  0.18244013E+03  0.18071270E+03  0.17885225E+03  0.17686290E+03
  0.17474902E+03  0.17251523E+03  0.17016637E+03  0.16770748E+03  0.16514382E+03
  0.16248079E+03  0.15972396E+03  0.15687906E+03  0.15395190E+03  0.15094841E+03
  0.14787460E+03  0.14473655E+03  0.14154036E+03  0.13829217E+03  0.13499813E+03
  0.13166436E+03  0.12829697E+03  0.12490201E+03  0.12148546E+03  0.11805323E+03
  0.11461114E+03  0.11116488E+03  0.10772003E+03  0.10428203E+03  0.10085616E+03
  0.97447549E+02  0.94061141E+02  0.90701705E+02  0.87373816E+02  0.84081846E+02
  0.80829963E+02  0.77622118E+02  0.74462044E+02  0.71353251E+02  0.68299022E+02
  0.65302409E+02  0.62366234E+02  0.59493088E+02  0.56685328E+02  0.53945080E+02
  0.51274241E+02  0.48674481E+02  0.46147244E+02  0.43693757E+02  0.41315026E+02
  0.39011849E+02  0.36784818E+02  0.34634324E+02  0.32560564E+02  0.30563552E+02
  0.28643119E+02  0.26798927E+02  0.25030472E+02  0.23337096E+02  0.21717995E+02
  0.20172223E+02  0.18698706E+02  0.17296250E+02  0.15963545E+02  0.14699181E+02
  0.13501651E+02  0.12369362E+02  0.11300643E+02  0.10293757E+02  0.93469017E+01
  0.84582261E+01  0.76258334E+01  0.68477903E+01  0.61221347E+01  0.54468827E+01
  0.48200359E+01  0.42395879E+01  0.37035312E+01  0.32098626E+01  0.27565899E+01
  0.23417368E+01  0.19633484E+01  0.16194958E+01  0.13082807E+01  0.10278398E+01
  0.77634818E+00  0.55202320E+00  0.35312739E+00  0.17797139E+00  0.24916460E-01
 -0.10762337E+00 -0.22117938E+00 -0.31722661E+00 -0.39718251E+00 -0.46240601E+00
 -0.51419671E+00 -0.55379440E+00 -0.58237887E+00 -0.60106984E+00 -0.61092720E+00
 -0.61295145E+00 -0.60808428E+00 -0.59720941E+00 -0.58115350E+00 -0.56068734E+00
 -0.53652705E+00 -0.50933554E+00 -0.47972395E+00 -0.44825330E+00 -0.41543619E+00
 -0.38173856E+00 -0.34758157E+00 -0.31334348E+00 -0.27936158E+00 -0.24593420E+00
 -0.21332269E+00 -0.18175347E+00 -0.15141999E+00 -0.12248478E+00 -0.95081463E-01
 -0.69316702E-01 -0.45272177E-01 -0.23006489E-01 -0.25570447E-02  0.16058119E-01
  0.32838553E-01  0.47799672E-01  0.60971094E-01  0.72395038E-01  0.82124793E-01
  0.90223249E-01  0.96761508E-01  0.10181756E+00  0.10547505E+00  0.10782206E+00
  0.10895009E+00  0.10895294E+00  0.10792586E+00  0.10596458E+00  0.10316461E+00
  0.99620401E-01  0.95424784E-01  0.90668322E-01  0.85438802E-01  0.79820777E-01
  0.73895167E-01  0.67738918E-01  0.61424722E-01  0.55020791E-01  0.48590678E-01
  0.42193148E-01  0.35882099E-01  0.29706518E-01  0.23710479E-01  0.17933178E-01
  0.12409004E-01  0.71676319E-02  0.22341509E-02 -0.23707877E-02 -0.66307992E-02
 -0.10533576E-01 -0.14070683E-01 -0.17237336E-01 -0.20032177E-01 -0.22457030E-01
 -0.24516661E-01 -0.26218527E-01 -0.27572524E-01 -0.28590740E-01 -0.29287202E-01
 -0.29677627E-01 -0.29779189E-01 -0.29610274E-01 -0.29190255E-01 -0.28539274E-01
 -0.27678028E-01 -0.26627568E-01 -0.25409114E-01 -0.24043870E-01 -0.22552863E-01
 -0.20956786E-01 -0.19275861E-01 -0.17529703E-01 -0.15737214E-01 -0.13916471E-01
 -0.12084646E-01 -0.10257919E-01 -0.84514200E-02 -0.66791748E-02 -0.49540617E-02
 -0.32877837E-02 -0.16908484E-02 -0.17255931E-03  0.12589837E-02  0.25968744E-02
  0.38353826E-02  0.49699277E-02  0.59970461E-02  0.69143516E-02  0.77204904E-02
  0.84150903E-02  0.89987064E-02  0.94727623E-02  0.98394886E-02  0.10101858E-01
  0.10263521E-01  0.10328736E-01  0.10302304E-01  0.10189496E-01  0.99959901E-02
  0.97278012E-02  0.93912155E-02  0.89927260E-02  0.85389707E-02  0.80366721E-02
  0.74925802E-02  0.69134178E-02  0.63058296E-02  0.56763344E-02  0.50312805E-02
  0.43768055E-02  0.37187991E-02  0.30628705E-02  0.24143192E-02  0.17781097E-02
  0.11588504E-02  0.56077579E-03 -0.12266914E-04 -0.55682812E-03 -0.10698623E-02
 -0.15487310E-02 -0.19912031E-02 -0.23954512E-02 -0.27600455E-02 -0.30839453E-02
 -0.33664875E-02 -0.36073728E-02 -0.38066500E-02 -0.39646988E-02 -0.40822099E-02
 -0.41601649E-02 -0.41998141E-02 -0.42026540E-02 -0.41704031E-02 -0.41049787E-02
 -0.40084714E-02 -0.38831212E-02 -0.37312926E-02 -0.35554503E-02 -0.33581354E-02
 -0.31419415E-02 -0.29094927E-02 -0.26634210E-02 -0.24063460E-02 -0.21408548E-02
 -0.18694831E-02 -0.15946982E-02 -0.13188827E-02 -0.10443197E-02 -0.77317976E-03
 -0.50750873E-03 -0.24921781E-03 -0.74424969E-07  0.23830499E-03  0.46446092E-03
  0.67709514E-03  0.87507372E-03  0.10574286E-02  0.12233579E-02  0.13722249E-02
  0.15035556E-02  0.16170357E-02  0.17125061E-02  0.17899569E-02  0.18495220E-02
  0.18914711E-02  0.19162022E-02  0.19242331E-02  0.19161921E-02  0.18928086E-02
  0.18549031E-02  0.18033770E-02  0.17392025E-02  0.16634115E-02  0.15770857E-02
  0.14813460E-02  0.13773417E-02  0.12662410E-02  0.11492210E-02  0.10274579E-02
  0.90211822E-03  0.77434991E-03  0.64527431E-03  0.51597843E-03  0.38750789E-03
  0.26086044E-03  0.13698011E-03  0.16752014E-04 -0.99002239E-04 -0.20952840E-03
 -0.31414282E-03 -0.41223500E-03 -0.50326948E-03 -0.58678709E-03 -0.66240558E-03
 -0.72981962E-03 -0.78880021E-03 -0.83919352E-03 -0.88091928E-03 -0.91396851E-03
 -0.93840098E-03 -0.95434209E-03 -0.96197944E-03 -0.96155904E-03 -0.95338122E-03
 -0.93779626E-03 -0.91519981E-03 -0.88602815E-03 -0.85075330E-03 -0.80987805E-03
 -0.76393088E-03 -0.71346098E-03 -0.65903320E-03 -0.60122309E-03 -0.54061207E-03
 -0.47778268E-03 -0.41331405E-03 -0.34777751E-03 -0.28173243E-03 -0.21572232E-03
 -0.15027119E-03 -0.85880149E-04 -0.23024349E-04  0.37849786E-04  0.96327018E-04
  0.15202541E-03  0.20459815E-03  0.25373497E-03  0.29916332E-03  0.34064917E-03
  0.37799747E-03  0.41105234E-03  0.43969691E-03  0.46385293E-03  0.48348001E-03
  0.49857467E-03  0.50916911E-03  0.51532974E-03  0.51715553E-03  0.51477612E-03
  0.50834981E-03  0.49806136E-03  0.48411966E-03  0.46675536E-03  0.44621828E-03
  0.42277491E-03  0.39670576E-03  0.36830272E-03  0.33786646E-03  0.30570377E-03
  0.27212500E-03  0.23744153E-03  0.20196338E-03  0.16599674E-03  0.12984184E-03
  0.93790745E-04  0.58125365E-04  0.23115615E-04 -0.10982306E-04 -0.43927459E-04
 -0.75495550E-04 -0.10548013E-03 -0.13369366E-03 -0.15996830E-03 -0.18415668E-03
 -0.20613233E-03 -0.22579002E-03 -0.24304596E-03 -0.25783770E-03 -0.27012402E-03
 -0.27988456E-03 -0.28711935E-03 -0.29184815E-03 -0.29410974E-03 -0.29396099E-03
 -0.29147590E-03 -0.28674450E-03 -0.27987164E-03 -0.27097576E-03 -0.26018754E-03
 -0.24764855E-03 -0.23350977E-03 -0.21793021E-03 -0.20107537E-03 -0.18311583E-03
 -0.16422571E-03 -0.14458128E-03 -0.12435950E-03 -0.10373661E-03 -0.82886847E-04
 -0.61981088E-04 -0.41185672E-04 -0.20661226E-04 -0.56159345E-06  0.18967161E-04
  0.37787656E-04  0.55772001E-04  0.72802519E-04  0.88772356E-04  0.10358600E-03
  0.11715969E-03  0.12942175E-03  0.14031275E-03  0.14978568E-03  0.15780590E-03
  0.16435110E-03  0.16941111E-03  0.17298763E-03  0.17509390E-03  0.17575423E-03
  0.17500358E-03  0.17288691E-03  0.16945859E-03  0.16478173E-03  0.15892744E-03
  0.15197402E-03  0.14400623E-03  0.13511438E-03  0.12539353E-03  0.11494261E-03
  0.10386354E-03  0.92260362E-04  0.80238389E-04  0.67903345E-04  0.55360536E-04
  0.42714052E-04  0.30065992E-04  0.17515727E-04  0.51592038E-05 -0.69117019E-05
 -0.18609790E-04 -0.29853086E-04 -0.40565333E-04 -0.50676434E-04 -0.60122828E-04
 -0.68847806E-04 -0.76801778E-04 -0.83942456E-04 -0.90235003E-04 -0.95652095E-04
 -0.10017394E-03 -0.10378825E-03 -0.10649010E-03 -0.10828182E-03 -0.10917277E-03
 -0.10917907E-03 -0.10832334E-03 -0.10663430E-03 -0.10414646E-03 -0.10089964E-03
 -0.96938579E-04 -0.92312418E-04 -0.87074242E-04 -0.81280553E-04 -0.74990749E-04
 -0.68266593E-04 -0.61171672E-04 -0.53770865E-04 -0.46129802E-04 -0.38314342E-04
 -0.30390058E-04 -0.22421736E-04 -0.14472890E-04 -0.66053106E-05  0.11213771E-05
  0.86501176E-05  0.15926803E-04  0.22900620E-04  0.29524360E-04  0.35754695E-04
  0.41552420E-04  0.46882654E-04  0.51715000E-04  0.56023679E-04  0.59787610E-04
  0.62990461E-04  0.65620660E-04  0.67671371E-04  0.69140429E-04  0.70030248E-04
  0.70347690E-04  0.70103905E-04  0.69314143E-04  0.67997539E-04  0.66176869E-04
  0.63878291E-04  0.61131061E-04  0.57967231E-04  0.54421340E-04  0.50530084E-04
  0.46331983E-04  0.41867039E-04  0.37176394E-04  0.32301985E-04  0.27286199E-04
  0.22171537E-04  0.17000281E-04  0.11814174E-04  0.66541087E-05  0.15598312E-05
 -0.34303399E-05 -0.82797766E-05 -0.12953786E-04 -0.17419833E-04 -0.21647745E-04
 -0.25609887E-04 -0.29281322E-04 -0.32639937E-04 -0.35666555E-04 -0.38345014E-04
 -0.40662221E-04 -0.42608190E-04 -0.44176042E-04 -0.45361994E-04 -0.46165316E-04
 -0.46588267E-04 -0.46636012E-04 -0.46316519E-04 -0.45640429E-04 -0.44620921E-04
 -0.43273549E-04 -0.41616070E-04 -0.39668259E-04 -0.37451712E-04 -0.34989636E-04
 -0.32306636E-04 -0.29428494E-04 -0.26381944E-04 -0.23194445E-04 -0.19893950E-04
 -0.16508682E-04 -0.13066910E-04 -0.95967269E-05 -0.61258395E-05 -0.26813600E-05
  0.71038950E-06  0.40240635E-05  0.72354681E-05  0.10321723E-04  0.13261411E-04
  0.16034711E-04  0.18623517E-04  0.21011543E-04  0.23184408E-04  0.25129709E-04
  0.26837072E-04  0.28298191E-04  0.29506849E-04  0.30458920E-04  0.31152358E-04
  0.31587168E-04  0.31765363E-04  0.31690910E-04  0.31369651E-04  0.30809225E-04
  0.30018969E-04  0.29009811E-04  0.27794151E-04  0.26385735E-04  0.24799525E-04
  0.23051551E-04  0.21158770E-04  0.19138914E-04  0.17010339E-04  0.14791866E-04
  0.12502632E-04  0.10161930E-04  0.77890602E-05  0.54031782E-05  0.30231523E-05
  0.66742216E-06 -0.16461350E-05 -0.39003309E-05 -0.60787851E-05 -0.81660356E-05
 -0.10147639E-04 -0.12010264E-04 -0.13741767E-04 -0.15331269E-04 -0.16769209E-04
 -0.18047392E-04 -0.19159030E-04 -0.20098759E-04 -0.20862659E-04 -0.21448250E-04
 -0.21854486E-04 -0.22081735E-04 -0.22131745E-04 -0.22007606E-04 -0.21713699E-04
 -0.21255638E-04 -0.20640199E-04 -0.19875247E-04 -0.18969654E-04 -0.17933212E-04
 -0.16776537E-04 -0.15510970E-04 -0.14148479E-04 -0.12701552E-04 -0.11183090E-04
 -0.96063012E-05 -0.79845903E-05 -0.63314537E-05 -0.46603717E-05 -0.29847055E-05
 -0.13175960E-05  0.32813403E-06  0.19400721E-05  0.35063049E-05  0.50155002E-05
  0.64569840E-05  0.78208101E-05  0.90978231E-05  0.10279715E-04  0.11359071E-04
  0.12329414E-04  0.13185232E-04  0.13922009E-04  0.14536233E-04  0.15025410E-04
  0.15388066E-04  0.15623731E-04  0.15732932E-04  0.15717167E-04  0.15578876E-04
  0.15321403E-04  0.14948954E-04  0.14466553E-04  0.13879979E-04  0.13195717E-04
  0.12420887E-04  0.11563183E-04  0.10630800E-04  0.96323604E-05  0.85768435E-05
  0.74735062E-05  0.63318074E-05  0.51613314E-05  0.39717113E-05  0.27725537E-05
  0.15733650E-05  0.38347968E-06 -0.78800884E-06 -0.19323139E-05 -0.30410181E-05
 -0.41061317E-05 -0.51201466E-05 -0.60760859E-05 -0.69675481E-05 -0.77887462E-05
 -0.85345417E-05 -0.92004724E-05 -0.97827752E-05 -0.10278402E-04 -0.10685033E-04
 -0.11001076E-04 -0.11225673E-04 -0.11358689E-04 -0.11400702E-04 -0.11352985E-04
 -0.11217484E-04 -0.10996794E-04 -0.10694122E-04 -0.10313256E-04 -0.98585251E-05
 -0.93347538E-05 -0.87472188E-05 -0.81015989E-05 -0.74039250E-05 -0.66605264E-05
 -0.58779774E-05 -0.50630422E-05 -0.42226187E-05 -0.33636836E-05 -0.24932369E-05
 -0.16182472E-05 -0.74559829E-06  0.11796207E-06  0.96587245E-06  0.17918051E-05
  0.25897109E-05  0.33538613E-05  0.40788870E-05  0.47598138E-05  0.53920937E-05
  0.59716333E-05  0.64948172E-05  0.69585285E-05  0.73601640E-05  0.76976455E-05
  0.79694277E-05  0.81745001E-05  0.83123870E-05  0.83831411E-05  0.83873349E-05
  0.83260474E-05  0.82008472E-05  0.80137721E-05  0.77673058E-05  0.74643511E-05
  0.71082002E-05  0.67025035E-05  0.62512348E-05  0.57586552E-05  0.52292760E-05
  0.46678190E-05  0.40791772E-05  0.34683735E-05  0.28405200E-05  0.22007774E-05
  0.15543135E-05  0.90626408E-06  0.26169286E-06 -0.37444589E-06 -0.99734409E-06
 -0.16023746E-05 -0.21851239E-05 -0.27414230E-05 -0.32673756E-05 -0.37593835E-05
 -0.42141700E-05 -0.46287998E-05 -0.50006962E-05 -0.53276553E-05 -0.56078569E-05
 -0.58398726E-05 -0.60226702E-05 -0.61556158E-05 -0.62384719E-05 -0.62713931E-05
 -0.62549185E-05 -0.61899617E-05 -0.60777974E-05 -0.59200458E-05 -0.57186551E-05
 -0.54758807E-05 -0.51942628E-05 -0.48766029E-05 -0.45259375E-05 -0.41455110E-05
 -0.37387474E-05 -0.33092210E-05 -0.28606265E-05 -0.23967482E-05 -0.19214298E-05
 -0.14385436E-05 -0.95195970E-06 -0.46551689E-06  0.17007160E-07  0.49192388E-06
  0.95566100E-06  0.14047883E-05  0.18360421E-05  0.22463475E-05  0.26328397E-05
  0.29928827E-05  0.33240859E-05  0.36243194E-05  0.38917258E-05  0.41247307E-05
  0.43220505E-05  0.44826977E-05  0.46059843E-05  0.46915223E-05  0.47392222E-05
  0.47492889E-05  0.47222160E-05  0.46587775E-05  0.45600173E-05  0.44272372E-05
  0.42619831E-05  0.40660291E-05  0.38413602E-05  0.35901543E-05  0.33147619E-05
  0.30176856E-05  0.27015586E-05  0.23691220E-05  0.20232021E-05  0.16666877E-05
  0.13025062E-05  0.93360071E-06  0.56290723E-06  0.19333170E-06 -0.17227180E-06
 -0.53112239E-06 -0.88053281E-06 -0.12179288E-05 -0.15408673E-05 -0.18470534E-05
 -0.21343560E-05 -0.24008217E-05 -0.26446873E-05 -0.28643907E-05 -0.30585801E-05
 -0.32261211E-05 -0.33661025E-05 -0.34778400E-05 -0.35608781E-05 -0.36149905E-05
 -0.36401782E-05 -0.36366664E-05 -0.36048992E-05 -0.35455334E-05 -0.34594301E-05
 -0.33476450E-05 -0.32114176E-05 -0.30521587E-05 -0.28714374E-05 -0.26709662E-05
 -0.24525861E-05 -0.22182505E-05 -0.19700080E-05 -0.17099857E-05 -0.14403716E-05
 -0.11633964E-05 -0.88131609E-06 -0.59639395E-06 -0.31088291E-06 -0.27008376E-07
  0.25304864E-06  0.52716774E-06  0.79330463E-06  0.10495059E-05  0.12939229E-05
  0.15248242E-05  0.17406079E-05  0.19398116E-05  0.21211222E-05  0.22833836E-05
  0.24256036E-05  0.25469592E-05  0.26468007E-05  0.27246541E-05  0.27802225E-05
  0.28133858E-05  0.28241990E-05  0.28128897E-05  0.27798537E-05  0.27256496E-05
  0.26509921E-05  0.25567446E-05  0.24439103E-05  0.23136223E-05  0.21671335E-05
  0.20058048E-05  0.18310934E-05  0.16445399E-05  0.14477556E-05  0.12424088E-05
  0.10302112E-05  0.81290407E-06  0.59224433E-06  0.36999086E-06  0.14789081E-06
 -0.72333794E-07 -0.28899893E-06 -0.50047115E-06 -0.70517948E-06 -0.90162673E-06
 -0.10884001E-05 -0.12641809E-05 -0.14277534E-05 -0.15780131E-05 -0.17139734E-05
 -0.18347721E-05 -0.19396757E-05 -0.20280840E-05 -0.20995327E-05 -0.21536950E-05
 -0.21903825E-05 -0.22095447E-05 -0.22112675E-05 -0.21957708E-05 -0.21634049E-05
 -0.21146463E-05 -0.20500918E-05 -0.19704529E-05 -0.18765484E-05 -0.17692967E-05
 -0.16497072E-05 -0.15188719E-05 -0.13779551E-05 -0.12281839E-05 -0.10708378E-05
 -0.90723786E-06 -0.73873640E-06 -0.56670572E-06 -0.39252744E-06 -0.21758162E-06
 -0.43236113E-07  0.12916383E-06  0.29830567E-06  0.46291932E-06  0.62178639E-06
  0.77374894E-06  0.91771764E-06  0.10526793E-05  0.11777037E-05  0.12919496E-05
  0.13946705E-05  0.14852186E-05  0.15630489E-05  0.16277219E-05  0.16789059E-05
  0.17163779E-05  0.17400238E-05  0.17498384E-05  0.17459235E-05  0.17284860E-05
  0.16978350E-05  0.16543778E-05  0.15986158E-05  0.15311393E-05  0.14526216E-05
  0.13638132E-05  0.12655346E-05  0.11586691E-05  0.10441553E-05  0.92297913E-06
  0.79616561E-06  0.66477034E-06  0.52987100E-06  0.39255879E-06  0.25392972E-06
  0.11507618E-06 -0.22921558E-07 -0.15900347E-06 -0.29213777E-06 -0.42132849E-06
 -0.54562276E-06 -0.66411763E-06 -0.77596642E-06 -0.88038456E-06 -0.97665486E-06
 -0.10641323E-05 -0.11422479E-05 -0.12105124E-05 -0.12685190E-05 -0.13159455E-05
 -0.13525554E-05 -0.13781991E-05 -0.13928138E-05 -0.13964231E-05 -0.13891351E-05
 -0.13711414E-05 -0.13427140E-05 -0.13042023E-05 -0.12560296E-05 -0.11986887E-05
 -0.11327374E-05 -0.10587935E-05 -0.97752866E-06 -0.88966345E-06 -0.79596049E-06
 -0.69721830E-06 -0.59426467E-06 -0.48794984E-06 -0.37913972E-06 -0.26870896E-06
 -0.15753407E-06 -0.46486662E-07  0.63573274E-07  0.17180386E-06  0.27738761E-06
  0.37953750E-06  0.47750260E-06  0.57057356E-06  0.65808747E-06  0.73943253E-06
  0.81405207E-06  0.88144828E-06  0.94118528E-06  0.99289177E-06  0.10362631E-05
  0.10710629E-05  0.10971240E-05  0.11143490E-05  0.11227099E-05  0.11222479E-05
 atomic pseudo charge-density
  0.13000000E+02  0.12985667E+02  0.12942884E+02  0.12872286E+02  0.12774901E+02
  0.12652091E+02  0.12505499E+02  0.12336975E+02  0.12148505E+02  0.11942147E+02
  0.11719970E+02  0.11484005E+02  0.11236206E+02  0.10978422E+02  0.10712382E+02
  0.10439682E+02  0.10161786E+02  0.98800276E+01  0.95956134E+01  0.93096344E+01
  0.90230728E+01  0.87368119E+01  0.84516446E+01  0.81682817E+01  0.78873594E+01
  0.76094462E+01  0.73350484E+01  0.70646157E+01  0.67985456E+01  0.65371877E+01
  0.62808471E+01  0.60297878E+01  0.57842361E+01  0.55443829E+01  0.53103866E+01
  0.50823757E+01  0.48604507E+01  0.46446867E+01  0.44351352E+01  0.42318263E+01
  0.40347703E+01  0.38439596E+01  0.36593704E+01  0.34809640E+01  0.33086885E+01
  0.31424802E+01  0.29822643E+01  0.28279571E+01  0.26794659E+01  0.25366911E+01
  0.23995263E+01  0.22678597E+01  0.21415746E+01  0.20205504E+01  0.19046628E+01
  0.17937851E+01  0.16877882E+01  0.15865413E+01  0.14899125E+01  0.13977691E+01
  0.13099779E+01  0.12264057E+01  0.11469199E+01  0.10713880E+01  0.99967865E+00
  0.93166164E+00  0.86720792E+00  0.80619003E+00  0.74848216E+00  0.69396035E+00
  0.64250260E+00  0.59398903E+00  0.54830194E+00  0.50532594E+00  0.46494803E+00
  0.42705764E+00  0.39154674E+00  0.35830985E+00  0.32724409E+00  0.29824923E+00
  0.27122771E+00  0.24608465E+00  0.22272787E+00  0.20106789E+00  0.18101794E+00
  0.16249396E+00  0.14541457E+00  0.12970109E+00  0.11527748E+00  0.10207035E+00
  0.90008936E-01  0.79025058E-01  0.69053091E-01  0.60029937E-01  0.51894985E-01
  0.44590075E-01  0.38059458E-01  0.32249747E-01  0.27109881E-01  0.22591074E-01
  0.18646769E-01  0.15232589E-01  0.12306287E-01  0.98276986E-02  0.77586845E-02
  0.60630830E-02  0.47066554E-02  0.36570327E-02  0.28836618E-02  0.23577520E-02
  0.20522201E-02  0.19416366E-02  0.20021716E-02  0.22115399E-02  0.25489478E-02
  0.29950389E-02  0.35318409E-02  0.41427124E-02  0.48122903E-02  0.55264381E-02
  0.62721939E-02  0.70377200E-02  0.78122524E-02  0.85860514E-02  0.93503531E-02
  0.10097321E-01  0.10820000E-01  0.11512270E-01  0.12168798E-01  0.12784998E-01
  0.13356986E-01  0.13881537E-01  0.14356045E-01  0.14778480E-01  0.15147354E-01
  0.15461678E-01  0.15720927E-01  0.15925005E-01  0.16074209E-01  0.16169197E-01
  0.16210953E-01  0.16200760E-01  0.16140165E-01  0.16030952E-01  0.15875118E-01
  0.15674841E-01  0.15432457E-01  0.15150435E-01  0.14831357E-01  0.14477891E-01
  0.14092774E-01  0.13678791E-01  0.13238758E-01  0.12775501E-01  0.12291846E-01
  0.11790595E-01  0.11274520E-01  0.10746347E-01  0.10208742E-01  0.96643020E-02
  0.91155460E-02  0.85649036E-02  0.80147081E-02  0.74671891E-02  0.69244665E-02
  0.63885448E-02  0.58613086E-02  0.53445192E-02  0.48398111E-02  0.43486903E-02
  0.38725324E-02  0.34125824E-02  0.29699541E-02  0.25456309E-02  0.21404667E-02
  0.17551881E-02  0.13903958E-02  0.10465682E-02  0.72406389E-03  0.42312570E-03
  0.14388445E-03 -0.11363663E-03 -0.34951721E-03 -0.56393496E-03 -0.75716028E-03
 -0.92955092E-03 -0.10815464E-02 -0.12136620E-02 -0.13264834E-02 -0.14206603E-02
 -0.14969002E-02 -0.15559631E-02 -0.15986545E-02 -0.16258203E-02 -0.16383401E-02
 -0.16371217E-02 -0.16230951E-02 -0.15972071E-02 -0.15604156E-02 -0.15136842E-02
 -0.14579773E-02 -0.13942549E-02 -0.13234682E-02 -0.12465547E-02 -0.11644342E-02
 -0.10780050E-02 -0.98813982E-03 -0.89568264E-03 -0.80144548E-03 -0.70620556E-03
 -0.61070276E-03 -0.51563734E-03 -0.42166801E-03 -0.32941023E-03 -0.23943487E-03
 -0.15226712E-03 -0.68385720E-04  0.11777608E-04  0.87838347E-04  0.15945919E-03
  0.22634976E-03  0.28826609E-03  0.34500985E-03  0.39642743E-03  0.44240868E-03
  0.48288562E-03  0.51783080E-03  0.54725566E-03  0.57120861E-03  0.58977307E-03
  0.60306527E-03  0.61123214E-03  0.61444889E-03  0.61291668E-03  0.60686019E-03
  0.59652510E-03  0.58217563E-03  0.56409199E-03  0.54256788E-03  0.51790801E-03
  0.49042565E-03  0.46044019E-03  0.42827478E-03  0.39425411E-03  0.35870211E-03
  0.32193991E-03  0.28428378E-03  0.24604325E-03  0.20751930E-03  0.16900271E-03
  0.13077248E-03  0.93094480E-04  0.56220124E-04  0.20385267E-04 -0.14190790E-04
 -0.47306149E-04 -0.78777016E-04 -0.10843826E-03 -0.13614384E-03 -0.16176706E-03
 -0.18520074E-03 -0.20635721E-03 -0.22516820E-03 -0.24158457E-03 -0.25557600E-03
 -0.26713045E-03 -0.27625367E-03 -0.28296843E-03 -0.28731383E-03 -0.28934442E-03
 -0.28912927E-03 -0.28675099E-03 -0.28230471E-03 -0.27589696E-03 -0.26764451E-03
 -0.25767327E-03 -0.24611704E-03 -0.23311634E-03 -0.21881720E-03 -0.20336994E-03
 -0.18692796E-03 -0.16964661E-03 -0.15168199E-03 -0.13318985E-03 -0.11432450E-03
 -0.95237769E-04 -0.76078016E-04 -0.56989204E-04 -0.38110020E-04 -0.19573065E-04
 -0.15041121E-05  0.15978566E-04  0.32764794E-04  0.48753024E-04  0.63850778E-04
  0.77975023E-04  0.91052464E-04  0.10301976E-03  0.11382367E-03  0.12342112E-03
  0.13177918E-03  0.13887501E-03  0.14469570E-03  0.14923805E-03  0.15250832E-03
  0.15452188E-03  0.15530282E-03  0.15488353E-03  0.15330421E-03  0.15061233E-03
  0.14686209E-03  0.14211383E-03  0.13643339E-03  0.12989149E-03  0.12256306E-03
  0.11452661E-03  0.10586349E-03  0.96657282E-04  0.86993095E-04  0.76956905E-04
  0.66634909E-04  0.56112894E-04  0.45475618E-04  0.34806228E-04  0.24185695E-04
  0.13692288E-04  0.34010795E-05 -0.66165155E-05 -0.16293154E-04 -0.25565947E-04
 -0.34376791E-04 -0.42672662E-04 -0.50405863E-04 -0.57534223E-04 -0.64021253E-04
 -0.69836262E-04 -0.74954413E-04 -0.79356753E-04 -0.83030187E-04 -0.85967413E-04
 -0.88166818E-04 -0.89632339E-04 -0.90373275E-04 -0.90404080E-04 -0.89744115E-04
 -0.88417371E-04 -0.86452167E-04 -0.83880826E-04 -0.80739331E-04 -0.77066954E-04
 -0.72905883E-04 -0.68300832E-04 -0.63298638E-04 -0.57947863E-04 -0.52298385E-04
 -0.46400993E-04 -0.40306986E-04 -0.34067780E-04 -0.27734522E-04 -0.21357715E-04
 -0.14986861E-04 -0.86701173E-05 -0.24539739E-05  0.36170509E-05  0.95006909E-05
  0.15157189E-04  0.20549530E-04  0.25643645E-04  0.30408592E-04  0.34816707E-04
  0.38843725E-04  0.42468877E-04  0.45674958E-04  0.48448359E-04  0.50779088E-04
  0.52660742E-04  0.54090473E-04  0.55068919E-04  0.55600106E-04  0.55691340E-04
  0.55353066E-04  0.54598712E-04  0.53444515E-04  0.51909329E-04  0.50014417E-04
  0.47783233E-04  0.45241192E-04  0.42415430E-04  0.39334557E-04  0.36028406E-04
  0.32527779E-04  0.28864192E-04  0.25069617E-04  0.21176235E-04  0.17216186E-04
  0.13221326E-04  0.92229983E-05  0.52518066E-05  0.13374029E-05 -0.24917131E-05
 -0.62083806E-05 -0.97869510E-05 -0.13203445E-04 -0.16435692E-04 -0.19463456E-04
 -0.22268542E-04 -0.24834883E-04 -0.27148612E-04 -0.29198112E-04 -0.30974055E-04
 -0.32469412E-04 -0.33679456E-04 -0.34601742E-04 -0.35236070E-04 -0.35584436E-04
 -0.35650961E-04 -0.35441816E-04 -0.34965121E-04 -0.34230841E-04 -0.33250664E-04
 -0.32037878E-04 -0.30607227E-04 -0.28974768E-04 -0.27157719E-04 -0.25174299E-04
 -0.23043571E-04 -0.20785272E-04 -0.18419653E-04 -0.15967312E-04 -0.13449028E-04
 -0.10885601E-04 -0.82976932E-05 -0.57056760E-05 -0.31294815E-05 -0.58846177E-06
  0.18987448E-05  0.43143383E-05  0.66414734E-05  0.88643652E-05  0.10968385E-04
  0.12940143E-04  0.14767567E-04  0.16439956E-04  0.17948037E-04  0.19284000E-04
  0.20441525E-04  0.21415794E-04  0.22203497E-04  0.22802820E-04  0.23213427E-04
  0.23436428E-04  0.23474337E-04  0.23331023E-04  0.23011651E-04  0.22522611E-04
  0.21871443E-04  0.21066753E-04  0.20118126E-04  0.19036030E-04  0.17831716E-04
  0.16517116E-04  0.15104737E-04  0.13607552E-04  0.12038893E-04  0.10412340E-04
  0.87416131E-05  0.70404663E-05  0.53225797E-05  0.36014592E-05  0.18903369E-05
  0.20207702E-06 -0.14509139E-05 -0.30567710E-05 -0.46042493E-05 -0.60827957E-05
 -0.74826134E-05 -0.87947202E-05 -0.10010998E-04 -0.11124237E-04 -0.12128169E-04
 -0.13017495E-04 -0.13787903E-04 -0.14436083E-04 -0.14959725E-04 -0.15357519E-04
 -0.15629139E-04 -0.15775230E-04 -0.15797375E-04 -0.15698068E-04 -0.15480673E-04
 -0.15149379E-04 -0.14709152E-04 -0.14165680E-04 -0.13525313E-04 -0.12795003E-04
 -0.11982234E-04 -0.11094959E-04 -0.10141527E-04 -0.91306104E-05 -0.80711336E-05
 -0.69721996E-05 -0.58430170E-05 -0.46928282E-05 -0.35308387E-05 -0.23661478E-05
 -0.12076823E-05 -0.64132595E-07  0.10561084E-05  0.21450023E-05  0.31949182E-05
  0.41986823E-05  0.51496221E-05  0.60416063E-05  0.68690798E-05  0.76270934E-05
  0.83113285E-05  0.89181162E-05  0.94444513E-05  0.98880015E-05  0.10247110E-04
  0.10520794E-04  0.10708740E-04  0.10811287E-04  0.10829416E-04  0.10764725E-04
  0.10619407E-04  0.10396219E-04  0.10098449E-04  0.97298819E-05  0.92947599E-05
  0.87977402E-05  0.82438518E-05  0.76384503E-05  0.69871700E-05  0.62958760E-05
  0.55706152E-05  0.48175673E-05  0.40429947E-05  0.32531948E-05  0.24544509E-05
  0.16529858E-05  0.85491587E-06  0.66207721E-07 -0.70736400E-06 -0.14602558E-05
 -0.21871925E-05 -0.28832010E-05 -0.35436417E-05 -0.41642364E-05 -0.47410932E-05
 -0.52707275E-05 -0.57500802E-05 -0.61765315E-05 -0.65479123E-05 -0.68625105E-05
 -0.71190753E-05 -0.73168168E-05 -0.74554025E-05 -0.75349509E-05 -0.75560214E-05
 -0.75196011E-05 -0.74270887E-05 -0.72802761E-05 -0.70813271E-05 -0.68327534E-05
 -0.65373892E-05 -0.61983634E-05 -0.58190705E-05 -0.54031399E-05 -0.49544042E-05
 -0.44768663E-05 -0.39746665E-05 -0.34520488E-05 -0.29133273E-05 -0.23628524E-05
 -0.18049778E-05 -0.12440283E-05 -0.68426780E-06 -0.12986886E-06  0.41511640E-06
  0.94678423E-06  0.14614053E-05  0.19554490E-05  0.24256060E-05  0.28688080E-05
  0.32822466E-05  0.36633885E-05  0.40099892E-05  0.43201040E-05  0.45920966E-05
  0.48246457E-05  0.50167481E-05  0.51677205E-05  0.52771982E-05  0.53451319E-05
  0.53717818E-05  0.53577101E-05  0.53037708E-05  0.52110981E-05  0.50810924E-05
  0.49154054E-05  0.47159226E-05  0.44847455E-05  0.42241715E-05  0.39366740E-05
  0.36248800E-05  0.32915485E-05  0.29395475E-05  0.25718308E-05  0.21914145E-05
  0.18013541E-05  0.14047208E-05  0.10045788E-05  0.60396292E-06  0.20585673E-06
 -0.18682844E-06 -0.57127354E-06 -0.94477088E-06 -0.13047420E-05 -0.16487541E-05
 -0.19745357E-05 -0.22799899E-05 -0.25632070E-05 -0.28224748E-05 -0.30562879E-05
 -0.32633552E-05 -0.34426049E-05 -0.35931892E-05 -0.37144861E-05 -0.38061000E-05
 -0.38678608E-05 -0.38998209E-05 -0.39022514E-05 -0.38756355E-05 -0.38206622E-05
 -0.37382169E-05 -0.36293720E-05 -0.34953755E-05 -0.33376394E-05 -0.31577258E-05
 -0.29573334E-05 -0.27382829E-05 -0.25025011E-05 -0.22520055E-05 -0.19888878E-05
 -0.17152977E-05 -0.14334257E-05 -0.11454869E-05 -0.85370431E-06 -0.56029253E-06
 -0.26744167E-06  0.22698122E-07  0.30803168E-06  0.58653319E-06  0.85625975E-06
  0.11153642E-05  0.13621070E-05  0.15948672E-05  0.18121521E-05  0.20126063E-05
  0.21950191E-05  0.23583313E-05  0.25016401E-05  0.26242034E-05  0.27254426E-05
  0.28049443E-05  0.28624605E-05  0.28979079E-05  0.29113659E-05  0.29030737E-05
  0.28734255E-05  0.28229661E-05  0.27523837E-05  0.26625034E-05  0.25542786E-05
  0.24287825E-05  0.22871983E-05  0.21308088E-05  0.19609860E-05  0.17791792E-05
  0.15869039E-05  0.13857295E-05  0.11772670E-05  0.96315704E-06  0.74505717E-06
  0.52462983E-06  0.30353011E-06  0.83393832E-07 -0.13417400E-06 -0.34761046E-06
 -0.55540540E-06 -0.75611163E-06 -0.94835461E-06 -0.11308413E-05 -0.13023684E-05
 -0.14618299E-05 -0.16082235E-05 -0.17406569E-05 -0.18583521E-05 -0.19606499E-05
 -0.20470131E-05 -0.21170281E-05 -0.21704070E-05 -0.22069874E-05 -0.22267321E-05
 -0.22297274E-05 -0.22161811E-05 -0.21864192E-05 -0.21408819E-05 -0.20801190E-05
 -0.20047843E-05 -0.19156292E-05 -0.18134965E-05 -0.16993128E-05 -0.15740804E-05
 -0.14388694E-05 -0.12948086E-05 -0.11430771E-05 -0.98489435E-06 -0.82151136E-06
 -0.65420081E-06 -0.48424764E-06 -0.31293947E-06 -0.14155724E-06  0.28634092E-07
  0.19639455E-06  0.36051786E-06  0.51983988E-06  0.67324647E-06  0.81968108E-06
  0.95815171E-06  0.10877374E-05  0.12075939E-05  0.13169591E-05  0.14151577E-05
  0.15016045E-05  0.15758082E-05  0.16373737E-05  0.16860036E-05  0.17214992E-05
  0.17437613E-05  0.17527888E-05  0.17486784E-05  0.17316224E-05  0.17019058E-05
  0.16599039E-05  0.16060775E-05  0.15409694E-05  0.14651990E-05  0.13794567E-05
  0.12844986E-05  0.11811396E-05  0.10702470E-05  0.95273333E-06  0.82954947E-06
  0.70167688E-06  0.57012020E-06  0.43589952E-06  0.30004276E-06  0.16357794E-06
  0.27525691E-07 -0.10710825E-06 -0.23934024E-06 -0.36821574E-06 -0.49281604E-06
 -0.61226462E-06 -0.72573313E-06 -0.83244702E-06 -0.93169059E-06 -0.10228117E-05
 -0.11052258E-05 -0.11784195E-05 -0.12419537E-05 -0.12954660E-05 -0.13386724E-05
 -0.13713686E-05 -0.13934307E-05 -0.14048153E-05 -0.14055588E-05 -0.13957762E-05
 -0.13756596E-05 -0.13454760E-05 -0.13055643E-05 -0.12563318E-05 -0.11982512E-05
 -0.11318555E-05 -0.10577340E-05 -0.97652706E-06 -0.88892094E-06 -0.79564204E-06
 -0.69745117E-06 -0.59513752E-06 -0.48951248E-06 -0.38140333E-06 -0.27164696E-06
 -0.16108349E-06 -0.50550020E-07  0.59125630E-07  0.16713096E-06  0.27267470E-06
  0.37499250E-06  0.47335235E-06  0.56705971E-06  0.65546229E-06  0.73795452E-06
  0.81398155E-06  0.88304289E-06  0.94469562E-06  0.99855703E-06  0.10443069E-05
  0.10816894E-05  0.11105140E-05  0.11306564E-05  0.11420591E-05  0.11447304E-05
  0.11387446E-05  0.11242397E-05  0.11014168E-05  0.10705370E-05  0.10319195E-05
  0.98593815E-06  0.93301840E-06  0.87363338E-06  0.80829993E-06  0.73757423E-06
  0.66204726E-06  0.58233996E-06  0.49909825E-06  0.41298795E-06  0.32468950E-06
  0.23489273E-06  0.14429159E-06  0.53578789E-07 -0.36559313E-07 -0.12544788E-06
 -0.21242856E-06 -0.29686425E-06 -0.37814373E-06 -0.45568601E-06 -0.52894436E-06
 -0.59741014E-06 -0.66061624E-06 -0.71814015E-06 -0.76960678E-06 -0.81469070E-06
 -0.85311820E-06 -0.88466876E-06 -0.90917620E-06 -0.92652940E-06 -0.93667256E-06
 -0.93960504E-06 -0.93538084E-06 -0.92410762E-06 -0.90594531E-06 -0.88110440E-06
 -0.84984382E-06 -0.81246847E-06 -0.76932645E-06 -0.72080596E-06 -0.66733197E-06
 -0.60936261E-06 -0.54738535E-06 -0.48191302E-06 -0.41347960E-06 -0.34263602E-06
 -0.26994578E-06 -0.19598050E-06 -0.12131555E-06 -0.46525614E-07  0.27819685E-07
  0.10116003E-06  0.17294860E-06  0.24265607E-06  0.30977448E-06  0.37382084E-06
  0.43434061E-06  0.49091079E-06  0.54314287E-06  0.59068539E-06  0.63322628E-06
  0.67049477E-06  0.70226308E-06  0.72834767E-06  0.74861019E-06  0.76295808E-06
  0.77134477E-06  0.77376959E-06  0.77027728E-06  0.76095718E-06  0.74594207E-06
  0.72540673E-06  0.69956618E-06  0.66867356E-06  0.63301787E-06  0.59292135E-06
  0.54873671E-06  0.50084408E-06  0.44964785E-06  0.39557331E-06  0.33906322E-06
  0.28057422E-06  0.22057320E-06  0.15953365E-06  0.97931948E-07  0.36243716E-07
 -0.25059816E-07 -0.85515354E-07 -0.14467100E-06 -0.20208957E-06 -0.25735179E-06
 -0.31005931E-06 -0.35983752E-06 -0.40633815E-06 -0.44924164E-06 -0.48825934E-06
 -0.52313530E-06 -0.55364793E-06 -0.57961132E-06 -0.60087627E-06 -0.61733102E-06
 -0.62890177E-06 -0.63555274E-06 -0.63728611E-06 -0.63414160E-06 -0.62619568E-06
 -0.61356071E-06 -0.59638358E-06 -0.57484431E-06 -0.54915426E-06 -0.51955418E-06
 -0.48631209E-06 -0.44972091E-06 -0.41009595E-06 -0.36777227E-06 -0.32310190E-06
 -0.27645098E-06 -0.22819677E-06 -0.17872470E-06 -0.12842531E-06 -0.77691196E-07
 -0.26914015E-07  0.23518507E-07  0.73225501E-07  0.12183578E-06  0.16899057E-06
  0.21434612E-06  0.25757617E-06  0.29837423E-06  0.33645572E-06  0.37155989E-06
  0.40345158E-06  0.43192271E-06  0.45679355E-06  0.47791384E-06  0.49516356E-06
  0.50845353E-06  0.51772575E-06  0.52295350E-06  0.52414121E-06  0.52132406E-06
  0.51456736E-06  0.50396576E-06  0.48964218E-06  0.47174652E-06  0.45045430E-06
  0.42596494E-06  0.39850006E-06  0.36830147E-06  0.33562915E-06  0.30075903E-06
  0.26398075E-06  0.22559524E-06  0.18591235E-06  0.14524837E-06  0.10392354E-06
  0.62259573E-07  0.20577194E-07 -0.20806307E-07 -0.61579443E-07 -0.10143884E-06
 -0.14009146E-06 -0.17725670E-06 -0.21266841E-06 -0.24607674E-06 -0.27724987E-06
 -0.30597556E-06 -0.33206255E-06 -0.35534177E-06 -0.37566738E-06 -0.39291763E-06
 -0.40699550E-06 -0.41782914E-06 -0.42537217E-06 -0.42960371E-06 -0.43052828E-06
 -0.42817544E-06 -0.42259932E-06 -0.41387790E-06 -0.40211217E-06 -0.38742509E-06
   15.1178079086314      T
 Non local Part
           2           2   1.35092037338574     
   38.7339672652213        36.8115523227441        36.8115523227441     
   34.9843513727601     
 Reciprocal Space Part
  0.00000000E+00 -0.20293761E+00 -0.80598398E+00 -0.17919823E+01 -0.31328098E+01
 -0.47900729E+01 -0.67160569E+01 -0.88549049E+01 -0.11143998E+02 -0.13515504E+02
 -0.15898049E+02 -0.18218483E+02 -0.20403685E+02 -0.22382365E+02 -0.24086830E+02
 -0.25454650E+02 -0.26430203E+02 -0.26966058E+02 -0.27024148E+02 -0.26576731E+02
 -0.25607092E+02 -0.24109989E+02 -0.22091823E+02 -0.19570533E+02 -0.16575219E+02
 -0.13145517E+02 -0.93307132E+01 -0.51886560E+01 -0.78446933E+00  0.38108901E+01
  0.85221981E+01  0.13271611E+02  0.17980357E+02  0.22570431E+02  0.26966256E+02
  0.31096256E+02  0.34894334E+02  0.38301196E+02  0.41265498E+02  0.43744807E+02
  0.45706338E+02  0.47127462E+02  0.47995982E+02  0.48310168E+02  0.48078559E+02
  0.47319545E+02  0.46060735E+02  0.44338145E+02  0.42195210E+02  0.39681674E+02
  0.36852357E+02  0.33765864E+02  0.30483235E+02  0.27066597E+02  0.23577835E+02
  0.20077312E+02  0.16622677E+02  0.13267777E+02  0.10061693E+02  0.70479323E+01
  0.42637707E+01  0.17397727E+01 -0.50051833E+00 -0.24407140E+01 -0.40715438E+01
 -0.53906561E+01 -0.64022684E+01 -0.71166823E+01 -0.75496814E+01 -0.77218329E+01
 -0.76577124E+01 -0.73850788E+01 -0.69340179E+01 -0.63360806E+01 -0.56234370E+01
 -0.48280658E+01 -0.39809988E+01 -0.31116361E+01 -0.22471462E+01 -0.14119609E+01
 -0.62737341E+00  0.88756230E-01  0.72218705E+00  0.12623755E+01  0.17024512E+01
  0.20390962E+01  0.22723383E+01  0.24052677E+01  0.24436909E+01  0.23957348E+01
  0.22714148E+01  0.20821827E+01  0.18404659E+01  0.15592147E+01  0.12514673E+01
  0.92994532E+00  0.60668906E+00  0.29274076E+00 -0.21185798E-02 -0.26957415E+00
 Real Space Part
  0.00000000E+00  0.13288873E+00  0.53081512E+00  0.11915622E+01  0.21114432E+01
  0.32853135E+01  0.47065878E+01  0.63672626E+01  0.82579429E+01  0.10367875E+02
  0.12684984E+02  0.15195916E+02  0.17886090E+02  0.20739750E+02  0.23740023E+02
  0.26868991E+02  0.30107758E+02  0.33436531E+02  0.36834704E+02  0.40280949E+02
  0.43753313E+02  0.47229318E+02  0.50686077E+02  0.54100400E+02  0.57448925E+02
  0.60708233E+02  0.63854990E+02  0.66866072E+02  0.69718717E+02  0.72390657E+02
  0.74860274E+02  0.77106746E+02  0.79110195E+02  0.80851843E+02  0.82314163E+02
  0.83481028E+02  0.84337857E+02  0.84871765E+02  0.85071699E+02  0.84928574E+02
  0.84435399E+02  0.83587396E+02  0.82382110E+02  0.80819499E+02  0.78902026E+02
  0.76634722E+02  0.74025241E+02  0.71083892E+02  0.67823656E+02  0.64260181E+02
  0.60411751E+02  0.56299237E+02  0.51946017E+02  0.47377876E+02  0.42622871E+02
  0.37711177E+02  0.32674898E+02  0.27547853E+02  0.22365326E+02  0.17163802E+02
  0.11980663E+02  0.68538618E+01  0.18215724E+01 -0.30781793E+01 -0.78079063E+01
 -0.12331066E+02 -0.16612475E+02 -0.20618732E+02 -0.24318640E+02 -0.27683626E+02
 -0.30688145E+02 -0.33310074E+02 -0.35531076E+02 -0.37336932E+02 -0.38717843E+02
 -0.39668685E+02 -0.40189211E+02 -0.40284197E+02 -0.39963551E+02 -0.39242321E+02
 -0.38140674E+02 -0.36683798E+02 -0.34901720E+02 -0.32829108E+02 -0.30504943E+02
 -0.27972215E+02 -0.25277485E+02 -0.22470486E+02 -0.19603599E+02 -0.16731378E+02
 -0.13909997E+02 -0.11196704E+02 -0.86492764E+01 -0.63254541E+01 -0.42823911E+01
 -0.25762164E+01 -0.12614342E+01 -0.38806255E+00 -0.19933055E-01 -0.28958283E-15
 Reciprocal Space Part
  0.00000000E+00  0.21804137E+00  0.86615956E+00  0.19264835E+01  0.33697136E+01
  0.51558375E+01  0.72351071E+01  0.95492526E+01  0.12032904E+02  0.14615187E+02
  0.17221444E+02  0.19775060E+02  0.22199318E+02  0.24419270E+02  0.26363553E+02
  0.27966123E+02  0.29167856E+02  0.29917980E+02  0.30175311E+02  0.29909251E+02
  0.29100536E+02  0.27741720E+02  0.25837367E+02  0.23403977E+02  0.20469623E+02
  0.17073324E+02  0.13264172E+02  0.91002311E+01  0.46472368E+01 -0.22865207E-01
 -0.48335109E+01 -0.97051978E+01 -0.14557213E+02 -0.19309367E+02 -0.23883695E+02
 -0.28206084E+02 -0.32207788E+02 -0.35826800E+02 -0.39009052E+02 -0.41709410E+02
 -0.43892462E+02 -0.45533062E+02 -0.46616641E+02 -0.47139277E+02 -0.47107524E+02
 -0.46538012E+02 -0.45456840E+02 -0.43898768E+02 -0.41906246E+02 -0.39528294E+02
 -0.36819280E+02 -0.33837608E+02 -0.30644365E+02 -0.27301955E+02 -0.23872747E+02
 -0.20417783E+02 -0.16995550E+02 -0.13660875E+02 -0.10463930E+02 -0.74493979E+01
 -0.46557898E+01 -0.21149352E+01  0.14835105E+00  0.21164268E+01  0.37788073E+01
  0.51319857E+01  0.61791001E+01  0.69294629E+01  0.73979701E+01  0.76044106E+01
  0.75726976E+01  0.73300451E+01  0.69061123E+01  0.63321392E+01  0.56400952E+01
  0.48618629E+01  0.40284731E+01  0.31694111E+01  0.23120050E+01  0.14809098E+01
  0.69769300E+00 -0.19472100E-01 -0.65600398E+00 -0.12010029E+01 -0.16472374E+01
 -0.19910335E+01 -0.22320767E+01 -0.23731365E+01 -0.24197263E+01 -0.23797130E+01
 -0.22628883E+01 -0.20805192E+01 -0.18448886E+01 -0.15688418E+01 -0.12653510E+01
 -0.94710811E+00 -0.62615768E+00 -0.31357602E+00 -0.19204156E-01  0.24856165E+00
 Real Space Part
  0.00000000E+00 -0.13114620E+00 -0.52383728E+00 -0.11758332E+01 -0.20834093E+01
 -0.32413693E+01 -0.46430634E+01 -0.62804123E+01 -0.81439360E+01 -0.10222788E+02
 -0.12504797E+02 -0.14976509E+02 -0.17623243E+02 -0.20429147E+02 -0.23377261E+02
 -0.26449584E+02 -0.29627154E+02 -0.32890129E+02 -0.36217870E+02 -0.39589039E+02
 -0.42981701E+02 -0.46373424E+02 -0.49741396E+02 -0.53062538E+02 -0.56313633E+02
 -0.59471447E+02 -0.62512869E+02 -0.65415042E+02 -0.68155506E+02 -0.70712344E+02
 -0.73064329E+02 -0.75191070E+02 -0.77073162E+02 -0.78692341E+02 -0.80031628E+02
 -0.81075481E+02 -0.81809938E+02 -0.82222759E+02 -0.82303563E+02 -0.82043957E+02
 -0.81437657E+02 -0.80480605E+02 -0.79171069E+02 -0.77509732E+02 -0.75499774E+02
 -0.73146929E+02 -0.70459536E+02 -0.67448561E+02 -0.64127610E+02 -0.60512913E+02
 -0.56623291E+02 -0.52480096E+02 -0.48107125E+02 -0.43530518E+02 -0.38778610E+02
 -0.33881777E+02 -0.28872239E+02 -0.23783839E+02 -0.18651799E+02 -0.13512441E+02
 -0.84028871E+01 -0.33607319E+01  0.15763069E+01  0.63707583E+01  0.10985786E+02
  0.15385588E+02  0.19535810E+02  0.23403959E+02  0.26959821E+02  0.30175866E+02
  0.33027647E+02  0.35494183E+02  0.37558302E+02  0.39206973E+02  0.40431579E+02
  0.41228170E+02  0.41597638E+02  0.41545859E+02  0.41083776E+02  0.40227398E+02
  0.38997765E+02  0.37420833E+02  0.35527283E+02  0.33352309E+02  0.30935284E+02
  0.28319448E+02  0.25551463E+02  0.22681010E+02  0.19760267E+02  0.16843433E+02
  0.13986178E+02  0.11245102E+02  0.86772002E+01  0.63392990E+01  0.42875241E+01
  0.25768700E+01  0.12606144E+01  0.38747675E+00  0.19885020E-01  0.28885900E-15
 Non local Part
           0           2   1.35092037338574     
   6.89387803634888       -12.0329201035591       -12.0329201035591     
   22.1895862916318     
 Reciprocal Space Part
  0.21946703E+02  0.21808147E+02  0.21394653E+02  0.20712705E+02  0.19772972E+02
  0.18590117E+02  0.17182518E+02  0.15571935E+02  0.13783107E+02  0.11843303E+02
  0.97818212E+01  0.76294681E+01  0.54180034E+01  0.31795806E+01  0.94618562E+00
 -0.12509122E+01 -0.33816883E+01 -0.54178573E+01 -0.73333272E+01 -0.91046027E+01
 -0.10711132E+02 -0.12135589E+02 -0.13364094E+02 -0.14386354E+02 -0.15195741E+02
 -0.15789296E+02 -0.16167661E+02 -0.16334945E+02 -0.16298532E+02 -0.16068830E+02
 -0.15658965E+02 -0.15084446E+02 -0.14362780E+02 -0.13513078E+02 -0.12555632E+02
 -0.11511495E+02 -0.10402056E+02 -0.92486310E+01 -0.80720715E+01 -0.68923979E+01
 -0.57284682E+01 -0.45976845E+01 -0.35157424E+01 -0.24964282E+01 -0.15514638E+01
 -0.69040289E+00  0.79423865E-01  0.75291410E+00  0.13271528E+01  0.18013281E+01
  0.21766072E+01  0.24559782E+01  0.26440625E+01  0.27469036E+01  0.27717383E+01
  0.27267565E+01  0.26208560E+01  0.24633968E+01  0.22639631E+01  0.20321350E+01
  0.17772768E+01  0.15083455E+01  0.12337212E+01  0.96106428E+00  0.69719920E+00
  0.44802716E+00  0.21846709E+00  0.12424828E-01 -0.16721061E+00 -0.31854564E+00
 -0.44063771E+00 -0.53343070E+00 -0.59767312E+00 -0.63482251E+00 -0.64693940E+00
 -0.63657441E+00 -0.60665191E+00 -0.56035357E+00 -0.50100482E+00 -0.43196724E+00
 -0.35653906E+00 -0.27786611E+00 -0.19886466E+00 -0.12215753E+00 -0.50024100E-01
  0.15635414E-01  0.73321478E-01  0.12194314E+00  0.16081307E+00  0.18963100E+00
  0.20845681E+00  0.21767511E+00  0.21795273E+00  0.21019132E+00  0.19547659E+00
  0.17502609E+00  0.15013733E+00  0.12213774E+00  0.92337840E-01  0.61988954E-01
 Real Space Part
 -0.31022239E+02 -0.31014108E+02 -0.30989669E+02 -0.30948781E+02 -0.30891210E+02
 -0.30816634E+02 -0.30724642E+02 -0.30614742E+02 -0.30486361E+02 -0.30338856E+02
 -0.30171519E+02 -0.29983579E+02 -0.29774220E+02 -0.29542579E+02 -0.29287765E+02
 -0.29008860E+02 -0.28704939E+02 -0.28375071E+02 -0.28018341E+02 -0.27633852E+02
 -0.27220746E+02 -0.26778210E+02 -0.26305493E+02 -0.25801917E+02 -0.25266889E+02
 -0.24699917E+02 -0.24100622E+02 -0.23468747E+02 -0.22804175E+02 -0.22106937E+02
 -0.21377224E+02 -0.20615401E+02 -0.19822013E+02 -0.18997796E+02 -0.18143688E+02
 -0.17260832E+02 -0.16350587E+02 -0.15414528E+02 -0.14454454E+02 -0.13472390E+02
 -0.12470584E+02 -0.11451509E+02 -0.10417857E+02 -0.93725379E+01 -0.83186687E+01
 -0.72595648E+01 -0.61987286E+01 -0.51398346E+01 -0.40867125E+01 -0.30433281E+01
 -0.20137603E+01 -0.10021771E+01 -0.12807665E-01  0.95008747E+00  0.18822492E+01
  0.27794542E+01  0.36375524E+01  0.44525055E+01  0.52204276E+01  0.59376267E+01
  0.66006473E+01  0.72063128E+01  0.77517682E+01  0.82345211E+01  0.86524822E+01
  0.90040023E+01  0.92879069E+01  0.95035270E+01  0.96507249E+01  0.97299150E+01
  0.97420785E+01  0.96887715E+01  0.95721257E+01  0.93948411E+01  0.91601719E+01
  0.88719038E+01  0.85343228E+01  0.81521761E+01  0.77306282E+01  0.72752060E+01
  0.67917416E+01  0.62863083E+01  0.57651526E+01  0.52346247E+01  0.47011051E+01
  0.41709343E+01  0.36503397E+01  0.31453680E+01  0.26618195E+01  0.22051870E+01
  0.17806007E+01  0.13927793E+01  0.10459867E+01  0.74399921E+00  0.49007498E+00
  0.28694338E+00  0.13678596E+00  0.40988723E-01  0.20256086E-02  0.30059168E-16
 Reciprocal Space Part
  0.72919403E+01  0.72229685E+01  0.70171956E+01  0.66780285E+01  0.62110730E+01
  0.56240280E+01  0.49265399E+01  0.41300207E+01  0.32474337E+01  0.22930515E+01
  0.12821907E+01  0.23092935E+00 -0.84418704E+00 -0.19264451E+01 -0.29992629E+01
 -0.40464821E+01 -0.50526484E+01 -0.60032740E+01 -0.68850767E+01 -0.76861925E+01
 -0.83963565E+01 -0.90070496E+01 -0.95116093E+01 -0.99053013E+01 -0.10185354E+02
 -0.10350952E+02 -0.10403197E+02 -0.10345024E+02 -0.10181097E+02 -0.99176621E+01
 -0.95623810E+01 -0.91241427E+01 -0.86128550E+01 -0.80392240E+01 -0.74145264E+01
 -0.67503788E+01 -0.60585085E+01 -0.53505320E+01 -0.46377441E+01 -0.39309219E+01
 -0.32401484E+01 -0.25746571E+01 -0.19427008E+01 -0.13514468E+01 -0.80689859E+00
 -0.31384547E+00  0.12416057E+00  0.50480120E+00  0.82696275E+00  0.10906838E+01
  0.12970813E+01  0.14482584E+01  0.15471967E+01  0.15976356E+01  0.16039436E+01
  0.15709827E+01  0.15039716E+01  0.14083493E+01  0.12896428E+01  0.11533412E+01
  0.10047799E+01  0.84903561E+00  0.69083470E+00  0.53447606E+00  0.38376949E+00
  0.24198996E+00  0.11184779E+00 -0.45253333E-02 -0.10557556E+00 -0.19031201E+00
 -0.25827935E+00 -0.30951925E+00 -0.34452259E+00 -0.36417413E+00 -0.36969170E+00
 -0.36256182E+00 -0.34447373E+00 -0.31725353E+00 -0.28280042E+00 -0.24302624E+00
 -0.19979999E+00 -0.15489822E+00 -0.10996241E+00 -0.66463691E-01 -0.25675638E-01
  0.11344991E-01  0.43769500E-01  0.71000857E-01  0.92670119E-01  0.10862638E+00
  0.11892099E+00  0.12378708E+00  0.12361520E+00  0.11892626E+00  0.11034274E+00
  0.98559157E-01  0.84312799E-01  0.68355571E-01  0.51427760E-01  0.34234374E-01
 Real Space Part
 -0.20805241E+02 -0.20799783E+02 -0.20783382E+02 -0.20755961E+02 -0.20717390E+02
 -0.20667488E+02 -0.20606029E+02 -0.20532738E+02 -0.20447299E+02 -0.20349354E+02
 -0.20238510E+02 -0.20114342E+02 -0.19976396E+02 -0.19824199E+02 -0.19657256E+02
 -0.19475064E+02 -0.19277114E+02 -0.19062896E+02 -0.18831909E+02 -0.18583668E+02
 -0.18317705E+02 -0.18033584E+02 -0.17730905E+02 -0.17409308E+02 -0.17068487E+02
 -0.16708193E+02 -0.16328240E+02 -0.15928519E+02 -0.15508998E+02 -0.15069730E+02
 -0.14610865E+02 -0.14132649E+02 -0.13635435E+02 -0.13119686E+02 -0.12585980E+02
 -0.12035015E+02 -0.11467614E+02 -0.10884724E+02 -0.10287421E+02 -0.96769115E+01
 -0.90545315E+01 -0.84217462E+01 -0.77801485E+01 -0.71314557E+01 -0.64775054E+01
 -0.58202504E+01 -0.51617514E+01 -0.45041689E+01 -0.38497537E+01 -0.32008355E+01
 -0.25598102E+01 -0.19291260E+01 -0.13112672E+01 -0.70873720E+00 -0.12403994E+00
  0.44034029E+00  0.98196002E+00  0.14984390E+01  0.19874836E+01  0.24469105E+01
  0.28746715E+01  0.32688779E+01  0.36278255E+01  0.39500180E+01  0.42341905E+01
  0.44793312E+01  0.46847019E+01  0.48498553E+01  0.49746507E+01  0.50592662E+01
  0.51042079E+01  0.51103142E+01  0.50787576E+01  0.50110402E+01  0.49089864E+01
  0.47747304E+01  0.46106984E+01  0.44195867E+01  0.42043369E+01  0.39681044E+01
  0.37142259E+01  0.34461833E+01  0.31675638E+01  0.28820210E+01  0.25932320E+01
  0.23048575E+01  0.20204991E+01  0.17436607E+01  0.14777104E+01  0.12258446E+01
  0.99105667E+00  0.77610785E+00  0.58350223E+00  0.41546721E+00  0.27393553E+00
  0.16053855E+00  0.76594860E-01  0.22970731E-01  0.11361239E-02  0.16861778E-16
 Non local Part
           1           2   1.35092037338574     
   2.19403260963114        5.04508609191320        5.04508609191320     
   11.6724679878888     
 Reciprocal Space Part
  0.00000000E+00  0.22437443E+01  0.44223375E+01  0.64720435E+01  0.83319245E+01
  0.99451615E+01  0.11260283E+02  0.12232275E+02  0.12823544E+02  0.13004721E+02
  0.12755278E+02  0.12063950E+02  0.10928959E+02  0.93580218E+01  0.73681621E+01
  0.49853131E+01  0.22437366E+01 -0.81473642E+00 -0.41416198E+01 -0.76828226E+01
 -0.11379808E+02 -0.15170838E+02 -0.18992265E+02 -0.22779862E+02 -0.26470130E+02
 -0.30001590E+02 -0.33315998E+02 -0.36359481E+02 -0.39083560E+02 -0.41446038E+02
 -0.43411742E+02 -0.44953101E+02 -0.46050550E+02 -0.46692762E+02 -0.46876693E+02
 -0.46607457E+02 -0.45898032E+02 -0.44768807E+02 -0.43246981E+02 -0.41365844E+02
 -0.39163940E+02 -0.36684156E+02 -0.33972734E+02 -0.31078257E+02 -0.28050610E+02
 -0.24939959E+02 -0.21795746E+02 -0.18665755E+02 -0.15595231E+02 -0.12626104E+02
 -0.97963018E+01 -0.71391874E+01 -0.46831126E+01 -0.24511025E+01 -0.46066851E+00
  0.12762498E+01  0.27532192E+01  0.39691295E+01  0.49279036E+01  0.56381104E+01
  0.61124965E+01  0.63674498E+01  0.64224123E+01  0.62992568E+01  0.60216457E+01
  0.56143878E+01  0.51028071E+01  0.45121404E+01  0.38669745E+01  0.31907358E+01
  0.25052409E+01  0.18303163E+01  0.11834921E+01  0.57977264E+00  0.31485425E-01
 -0.45179252E+00 -0.86323462E+00 -0.11986951E+01 -0.14565765E+01 -0.16376413E+01
 -0.17447772E+01 -0.17827242E+01 -0.17577748E+01 -0.16774553E+01 -0.15501995E+01
 -0.13850242E+01 -0.11912140E+01 -0.97802478E+00 -0.75441197E+00 -0.52878969E+00
 -0.30882533E+00 -0.10127279E+00  0.88153641E-01  0.25486419E+00  0.39543765E+00
  0.50762655E+00  0.59032595E+00  0.64350965E+00  0.66813803E+00  0.66604250E+00
 Real Space Part
  0.00000000E+00 -0.42356337E+01 -0.84606830E+01 -0.12664576E+02 -0.16836767E+02
 -0.20966750E+02 -0.25044070E+02 -0.29058341E+02 -0.32999257E+02 -0.36856610E+02
 -0.40620306E+02 -0.44280381E+02 -0.47827022E+02 -0.51250585E+02 -0.54541614E+02
 -0.57690868E+02 -0.60689339E+02 -0.63528283E+02 -0.66199239E+02 -0.68694065E+02
 -0.71004962E+02 -0.73124505E+02 -0.75045677E+02 -0.76761903E+02 -0.78267084E+02
 -0.79555632E+02 -0.80622509E+02 -0.81463265E+02 -0.82074077E+02 -0.82451786E+02
 -0.82593943E+02 -0.82498841E+02 -0.82165562E+02 -0.81594014E+02 -0.80784967E+02
 -0.79740094E+02 -0.78462005E+02 -0.76954282E+02 -0.75221505E+02 -0.73269287E+02
 -0.71104293E+02 -0.68734258E+02 -0.66168007E+02 -0.63415456E+02 -0.60487622E+02
 -0.57396610E+02 -0.54155603E+02 -0.50778841E+02 -0.47281584E+02 -0.43680074E+02
 -0.39991481E+02 -0.36233832E+02 -0.32425940E+02 -0.28587309E+02 -0.24738030E+02
 -0.20898666E+02 -0.17090116E+02 -0.13333477E+02 -0.96498792E+01 -0.60603218E+01
 -0.25854904E+01  0.75443305E+00  0.39399692E+01  0.69525451E+01  0.97747021E+01
  0.12390305E+02  0.14784747E+02  0.16945152E+02  0.18860563E+02  0.20522121E+02
  0.21923226E+02  0.23059679E+02  0.23929790E+02  0.24534471E+02  0.24877290E+02
  0.24964494E+02  0.24804993E+02  0.24410308E+02  0.23794487E+02  0.22973976E+02
  0.21967455E+02  0.20795648E+02  0.19481087E+02  0.18047869E+02  0.16521362E+02
  0.14927929E+02  0.13294598E+02  0.11648763E+02  0.10017852E+02  0.84290237E+01
  0.69088533E+01  0.54830447E+01  0.41761568E+01  0.30113530E+01  0.20101677E+01
  0.11923442E+01  0.57563452E+00  0.17470072E+00  0.82363574E-02  0.14038324E-15
 Reciprocal Space Part
  0.00000000E+00 -0.48681999E+00 -0.95216978E+00 -0.13750741E+01 -0.17355361E+01
 -0.20149985E+01 -0.21967720E+01 -0.22664203E+01 -0.22120943E+01 -0.20248073E+01
 -0.16986448E+01 -0.12309051E+01 -0.62216679E+00  0.12371664E+00  0.99969608E+00
  0.19956767E+01  0.30987353E+01  0.42933985E+01  0.55619772E+01  0.68849468E+01
  0.82413656E+01  0.96093218E+01  0.10966397E+02  0.12290139E+02  0.13558526E+02
  0.14750426E+02  0.15846019E+02  0.16827200E+02  0.17677928E+02  0.18384533E+02
  0.18935966E+02  0.19323990E+02  0.19543303E+02  0.19591607E+02  0.19469599E+02
  0.19180911E+02  0.18731979E+02  0.18131862E+02  0.17392008E+02  0.16525976E+02
  0.15549118E+02  0.14478235E+02  0.13331211E+02  0.12126634E+02  0.10883413E+02
  0.96204024E+01  0.83560407E+01  0.71080060E+01  0.58929036E+01  0.47259864E+01
  0.36209147E+01  0.25895596E+01  0.16418520E+01  0.78567970E+00  0.26832876E-01
 -0.63100324E+00 -0.11862098E+01 -0.16391529E+01 -0.19920632E+01 -0.22488801E+01
 -0.24150680E+01 -0.24974072E+01 -0.25037675E+01 -0.24428708E+01 -0.23240473E+01
 -0.21569927E+01 -0.19515317E+01 -0.17173927E+01 -0.14639991E+01 -0.12002814E+01
 -0.93451204E+00 -0.67416803E+00 -0.42582094E+00 -0.19505664E+00  0.13575465E-01
  0.19658429E+00  0.35153108E+00  0.47699762E+00  0.57253110E+00  0.63856849E+00
  0.67634381E+00  0.68778188E+00  0.67538206E+00  0.64209606E+00  0.59120319E+00
  0.52618677E+00  0.45061491E+00  0.36802862E+00  0.28183980E+00  0.19524132E+00
  0.11113071E+00  0.32048703E-01 -0.39866601E-01 -0.10291002E+00 -0.15582405E+00
 -0.19779894E+00 -0.22845913E+00 -0.24783749E+00 -0.25633900E+00 -0.25469576E+00
 Real Space Part
  0.00000000E+00  0.17515335E+01  0.34988077E+01  0.52375688E+01  0.69635730E+01
  0.86725921E+01  0.10360419E+02  0.12022874E+02  0.13655808E+02  0.15255112E+02
  0.16816724E+02  0.18336630E+02  0.19810879E+02  0.21235587E+02  0.22606942E+02
  0.23921221E+02  0.25174792E+02  0.26364125E+02  0.27485808E+02  0.28536550E+02
  0.29513197E+02  0.30412746E+02  0.31232352E+02  0.31969346E+02  0.32621248E+02
  0.33185778E+02  0.33660876E+02  0.34044712E+02  0.34335704E+02  0.34532534E+02
  0.34634161E+02  0.34639841E+02  0.34549138E+02  0.34361945E+02  0.34078494E+02
  0.33699373E+02  0.33225543E+02  0.32658344E+02  0.31999517E+02  0.31251207E+02
  0.30415976E+02  0.29496812E+02  0.28497132E+02  0.27420788E+02  0.26272067E+02
  0.25055690E+02  0.23776807E+02  0.22440987E+02  0.21054211E+02  0.19622848E+02
  0.18153643E+02  0.16653685E+02  0.15130382E+02  0.13591422E+02  0.12044737E+02
  0.10498454E+02  0.89608470E+01  0.74402778E+01  0.59451378E+01  0.44837805E+01
  0.30644517E+01  0.16952146E+01  0.38387285E+00 -0.86210998E+00 -0.20356917E+01
 -0.31303335E+01 -0.41400814E+01 -0.50596452E+01 -0.58844744E+01 -0.66108283E+01
 -0.72358412E+01 -0.77575780E+01 -0.81750812E+01 -0.84884065E+01 -0.86986467E+01
 -0.88079440E+01 -0.88194848E+01 -0.87374823E+01 -0.85671474E+01 -0.83146370E+01
 -0.79869969E+01 -0.75920861E+01 -0.71384881E+01 -0.66354181E+01 -0.60926091E+01
 -0.55202052E+01 -0.49286346E+01 -0.43284932E+01 -0.37304154E+01 -0.31449549E+01
 -0.25824637E+01 -0.20529777E+01 -0.15661099E+01 -0.11309511E+01 -0.75597829E+00
 -0.44898877E+00 -0.21702153E+00 -0.65938937E-01 -0.31086369E-02 -0.53128521E-16
 PAW radial sets
         357   1.14882052126325     
(5E20.12)                                
 augmentation charges (non sperical)
  0.577261779764E+00  0.554713646708E+00 -0.166331764331E+00  0.250837599182E+00 -0.127505185304E+00
 -0.285963568854E+00  0.554713646708E+00  0.533071241368E+00 -0.159954597231E+00  0.240190866400E+00
 -0.122842827447E+00 -0.275258681395E+00 -0.166331764331E+00 -0.159954597231E+00 -0.318646537638E+00
  0.558237969179E+00 -0.955970407294E-01 -0.257629823953E+00  0.250837599182E+00  0.240190866400E+00
  0.558237969179E+00 -0.986778678479E+00  0.164424516835E+00  0.445163768409E+00 -0.127505185304E+00
 -0.122842827447E+00 -0.955970407294E-01  0.164424516835E+00 -0.248134110402E-01 -0.704794208230E-01
 -0.285963568854E+00 -0.275258681395E+00 -0.257629823953E+00  0.445163768409E+00 -0.704794208230E-01
 -0.197168600887E+00
 uccopancies in atom
  0.200000000461E+01  0.000000000000E+00  0.000000000000E+00  0.000000000000E+00  0.000000000000E+00
  0.000000000000E+00  0.000000000000E+00  0.000000000000E+00  0.000000000000E+00  0.000000000000E+00
  0.000000000000E+00  0.000000000000E+00  0.000000000000E+00  0.000000000000E+00  0.199999999977E+01
  0.000000000000E+00  0.000000000000E+00  0.000000000000E+00  0.000000000000E+00  0.000000000000E+00
  0.000000000000E+00  0.000000000000E+00  0.000000000000E+00  0.000000000000E+00  0.000000000000E+00
  0.000000000000E+00  0.000000000000E+00  0.000000000000E+00  0.333333334288E+00  0.000000000000E+00
  0.000000000000E+00  0.000000000000E+00  0.000000000000E+00  0.000000000000E+00  0.000000000000E+00
  0.000000000000E+00
 grid
  0.684597745774E-04  0.706859156604E-04  0.729844452979E-04  0.753577173851E-04  0.778081623599E-04
  0.803382896922E-04  0.829506904535E-04  0.856480399704E-04  0.884331005645E-04  0.913087243813E-04
  0.942778563107E-04  0.973435370035E-04  0.100508905984E-03  0.103777204868E-03  0.107151780678E-03
  0.110636089274E-03  0.114233698894E-03  0.117948293804E-03  0.121783678074E-03  0.125743779472E-03
  0.129832653488E-03  0.134054487486E-03  0.138413604994E-03  0.142914470129E-03  0.147561692169E-03
  0.152360030277E-03  0.157314398370E-03  0.162429870154E-03  0.167711684318E-03  0.173165249903E-03
  0.178796151835E-03  0.184610156651E-03  0.190613218399E-03  0.196811484740E-03  0.203211303239E-03
  0.209819227870E-03  0.216642025725E-03  0.223686683946E-03  0.230960416878E-03  0.238470673459E-03
  0.246225144849E-03  0.254231772303E-03  0.262498755307E-03  0.271034559975E-03  0.279847927717E-03
  0.288947884191E-03  0.298343748549E-03  0.308045142975E-03  0.318062002546E-03  0.328404585401E-03
  0.339083483249E-03  0.350109632214E-03  0.361494324037E-03  0.373249217637E-03  0.385386351051E-03
  0.397918153766E-03  0.410857459442E-03  0.424217519059E-03  0.438012014486E-03  0.452255072491E-03
  0.466961279210E-03  0.482145695084E-03  0.497823870281E-03  0.514011860624E-03  0.530726244029E-03
  0.547984137485E-03  0.565803214582E-03  0.584201723614E-03  0.603198506261E-03  0.622813016889E-03
  0.643065342469E-03  0.663976223155E-03  0.685567073513E-03  0.707860004463E-03  0.730877845914E-03
  0.754644170146E-03  0.779183315952E-03  0.804520413562E-03  0.830681410378E-03  0.857693097547E-03
  0.885583137397E-03  0.914380091765E-03  0.944113451250E-03  0.974813665410E-03  0.100651217395E-02
  0.103924143890E-02  0.107303497790E-02  0.110792739849E-02  0.114395443355E-02  0.118115297791E-02
  0.121956112614E-02  0.125921821153E-02  0.130016484640E-02  0.134244296369E-02  0.138609585988E-02
  0.143116823936E-02  0.147770626018E-02  0.152575758133E-02  0.157537141158E-02  0.162659855981E-02
  0.167949148711E-02  0.173410436045E-02  0.179049310819E-02  0.184871547733E-02  0.190883109268E-02
  0.197090151786E-02  0.203499031842E-02  0.210116312690E-02  0.216948771002E-02  0.224003403814E-02
  0.231287435686E-02  0.238808326103E-02  0.246573777114E-02  0.254591741219E-02  0.262870429515E-02
  0.271418320102E-02  0.280244166765E-02  0.289357007945E-02  0.298766175986E-02  0.308481306698E-02
  0.318512349226E-02  0.328869576231E-02  0.339563594421E-02  0.350605355404E-02  0.362006166908E-02
  0.373777704361E-02  0.385932022846E-02  0.398481569446E-02  0.411439195995E-02  0.424818172233E-02
  0.438632199402E-02  0.452895424273E-02  0.467622453635E-02  0.482828369252E-02  0.498528743310E-02
  0.514739654366E-02  0.531477703807E-02  0.548760032860E-02  0.566604340140E-02  0.585028899777E-02
  0.604052580129E-02  0.623694863108E-02  0.643975864127E-02  0.664916352706E-02  0.686537773732E-02
  0.708862269432E-02  0.731912702039E-02  0.755712677210E-02  0.780286568200E-02  0.805659540821E-02
  0.831857579214E-02  0.858907512459E-02  0.886837042052E-02  0.915674770272E-02  0.945450229472E-02
  0.976193912325E-02  0.100793730305E-01  0.104071290965E-01  0.107455429721E-01  0.110949612227E-01
  0.114557416831E-01  0.118282538240E-01  0.122128791305E-01  0.126100114924E-01  0.130200576080E-01
  0.134434374004E-01  0.138805844474E-01  0.143319464258E-01  0.147979855697E-01  0.152791791440E-01
  0.157760199328E-01  0.162890167447E-01  0.168186949331E-01  0.173655969348E-01  0.179302828253E-01
  0.185133308922E-01  0.191153382277E-01  0.197369213399E-01  0.203787167843E-01  0.210413818154E-01
  0.217255950602E-01  0.224320572129E-01  0.231614917523E-01  0.239146456832E-01  0.246922903011E-01
  0.254952219820E-01  0.263242629980E-01  0.271802623597E-01  0.280640966852E-01  0.289766710980E-01
  0.299189201542E-01  0.308918087990E-01  0.318963333555E-01  0.329335225446E-01  0.340044385387E-01
  0.351101780493E-01  0.362518734502E-01  0.374306939375E-01  0.386478467262E-01  0.399045782871E-01
  0.412021756233E-01  0.425419675877E-01  0.439253262444E-01  0.453536682736E-01  0.468284564223E-01
  0.483512010024E-01  0.499234614375E-01  0.515468478597E-01  0.532230227584E-01  0.549537026833E-01
  0.567406600018E-01  0.585857247145E-01  0.604907863287E-01  0.624577957940E-01  0.644887675001E-01
  0.665857813394E-01  0.687509848374E-01  0.709865953515E-01  0.732949023425E-01  0.756782697182E-01
  0.781391382553E-01  0.806800280980E-01  0.833035413397E-01  0.860123646872E-01  0.888092722122E-01
  0.916971281925E-01  0.946788900450E-01  0.977576113543E-01  0.100936445000E+00  0.104218646386E+00
  0.107607576773E+00  0.111106706721E+00  0.114719619646E+00  0.118450015487E+00  0.122301714494E+00
  0.126278661144E+00  0.130384928177E+00  0.134624720771E+00  0.139002380843E+00  0.143522391500E+00
  0.148189381626E+00  0.153008130630E+00  0.157983573329E+00  0.163120805013E+00  0.168425086655E+00
  0.173901850304E+00  0.179556704644E+00  0.185395440740E+00  0.191424037968E+00  0.197648670138E+00
  0.204075711818E+00  0.210711744859E+00  0.217563565141E+00  0.224638189524E+00  0.231942863044E+00
  0.239485066323E+00  0.247272523238E+00  0.255313208824E+00  0.263615357447E+00  0.272187471231E+00
  0.281038328771E+00  0.290176994117E+00  0.299612826063E+00  0.309355487724E+00  0.319414956437E+00
  0.329801533978E+00  0.340525857109E+00  0.351598908474E+00  0.363032027845E+00  0.374836923737E+00
  0.387025685393E+00  0.399610795171E+00  0.412605141323E+00  0.426022031194E+00  0.439875204854E+00
  0.454178849161E+00  0.468947612298E+00  0.484196618769E+00  0.499941484889E+00  0.516198334776E+00
  0.532983816865E+00  0.550315120958E+00  0.568209995823E+00  0.586686767377E+00  0.605764357447E+00
  0.625462303154E+00  0.645800776915E+00  0.666800607105E+00  0.688483299384E+00  0.710871058724E+00
  0.733986812147E+00  0.757854232205E+00  0.782497761221E+00  0.807942636323E+00  0.834214915286E+00
  0.861341503219E+00  0.889350180120E+00  0.918269629320E+00  0.948129466863E+00  0.978960271831E+00
  0.101079361766E+01  0.104366210449E+01  0.107759939251E+01  0.111264023647E+01  0.114882052126E+01
  0.118617729866E+01  0.122474882526E+01  0.126457460168E+01  0.130569541300E+01  0.134815337052E+01
  0.139199195490E+01  0.143725606068E+01  0.148399204225E+01  0.153224776136E+01  0.158207263607E+01
  0.163351769141E+01  0.168663561160E+01  0.174148079405E+01  0.179810940501E+01  0.185657943713E+01
  0.191695076882E+01  0.197928522562E+01  0.204364664344E+01  0.211010093401E+01  0.217871615233E+01
  0.224956256637E+01  0.232271272906E+01  0.239824155255E+01  0.247622638495E+01  0.255674708956E+01
  0.263988612661E+01  0.272572863774E+01  0.281436253318E+01  0.290587858178E+01  0.300037050398E+01
  0.309793506776E+01  0.319867218776E+01  0.330268502760E+01  0.341008010550E+01  0.352096740342E+01
  0.363546047964E+01  0.375367658508E+01  0.387573678335E+01  0.400176607476E+01  0.413189352432E+01
  0.426625239392E+01  0.440498027877E+01  0.454821924836E+01  0.469611599190E+01  0.484882196858E+01
  0.500649356266E+01  0.516929224365E+01  0.533738473160E+01  0.551094316793E+01  0.569014529163E+01
  0.587517462133E+01  0.606622064325E+01
 aepotential
  0.111589821952E+05  0.111876005044E+05  0.112091476908E+05  0.112231866405E+05  0.112293077376E+05
  0.112271335329E+05  0.112163240269E+05  0.111965814036E+05  0.111676545136E+05  0.111293428212E+05
  0.110815002182E+05  0.110240378321E+05  0.109569264983E+05  0.108801984076E+05  0.107939479814E+05
  0.106983318802E+05  0.105935683332E+05  0.104799356738E+05  0.103577693471E+05  0.102274594492E+05
  0.100894464610E+05  0.994421643829E+04  0.979229612281E+04  0.963424713188E+04  0.947065997558E+04
  0.930214767859E+04  0.912933935001E+04  0.895287360692E+04  0.877339230972E+04  0.859153426191E+04
  0.840792923748E+04  0.822319258644E+04  0.803791998428E+04  0.785268306806E+04  0.766802526799E+04
  0.748445854343E+04  0.730246058037E+04  0.712247262274E+04  0.694489795696E+04  0.677010094452E+04
  0.659840663581E+04  0.643010085660E+04  0.626543080039E+04  0.610460600772E+04  0.594779970530E+04
  0.579515044754E+04  0.564676400167E+04  0.550271541870E+04  0.536305124500E+04  0.522779182010E+04
  0.509693362140E+04  0.497045161327E+04  0.484830156826E+04  0.473042232996E+04  0.461673799346E+04
  0.450715998384E+04  0.440158901736E+04  0.429991693451E+04  0.420202839749E+04  0.410780244837E+04
  0.401711392663E+04  0.392983474762E+04  0.384583504556E+04  0.376498418457E+04  0.368715164788E+04
  0.361220780703E+04  0.354002458261E+04  0.347047600591E+04  0.340343868386E+04  0.333879218625E+04
  0.327641934612E+04  0.321620650838E+04  0.315804369960E+04  0.310182476091E+04  0.304744742368E+04
  0.299481335023E+04  0.294382813989E+04  0.289440130308E+04  0.284644621550E+04  0.279988004626E+04
  0.275462367617E+04  0.271060159684E+04  0.266774180531E+04  0.262597568570E+04  0.258523788969E+04
  0.254546621187E+04  0.250660146432E+04  0.246858734824E+04  0.243137033043E+04  0.239489951857E+04
  0.235912653965E+04  0.232400542326E+04  0.228949248598E+04  0.225554622275E+04  0.222212720074E+04
  0.218919795850E+04  0.215672291078E+04  0.212466825681E+04  0.209300189556E+04  0.206169334346E+04
  0.203071366029E+04  0.200003537725E+04  0.196963243140E+04  0.193948010512E+04  0.190955496939E+04
  0.187983483269E+04  0.185029869394E+04  0.182092670051E+04  0.179170011030E+04  0.176260125847E+04
  0.173361352858E+04  0.170472132817E+04  0.167591006842E+04  0.164716614856E+04  0.161847694449E+04
  0.158983080181E+04  0.156121703360E+04  0.153262592246E+04  0.150404872780E+04  0.147547769749E+04
  0.144690608505E+04  0.141832817169E+04  0.138973929399E+04  0.136113587727E+04  0.133251547448E+04
  0.130387681131E+04  0.127521983719E+04  0.124654578230E+04  0.121785722057E+04  0.118915813774E+04
  0.116045400511E+04  0.113175185605E+04  0.110306036558E+04  0.107438993002E+04  0.104575274339E+04
  0.101716286779E+04  0.988636292050E+03  0.960190972396E+03  0.931846848199E+03  0.903625823769E+03
  0.875551706146E+03  0.847650089601E+03  0.819948176239E+03  0.792474525957E+03  0.765258732743E+03
  0.738331032882E+03  0.711721863401E+03  0.685461407280E+03  0.659579188593E+03  0.634103809760E+03
  0.609062961256E+03  0.584483864398E+03  0.560394330961E+03  0.536824609544E+03  0.513810125152E+03
  0.491395067214E+03  0.469636530023E+03  0.448608558026E+03  0.428405053825E+03  0.409140189754E+03
  0.390944917942E+03  0.373958551149E+03  0.358315644154E+03  0.344128815039E+03  0.331471529827E+03
  0.320363166965E+03  0.310760436633E+03  0.302556789846E+03  0.295589758649E+03  0.289654334932E+03
  0.284519569038E+03  0.279945629663E+03  0.275699210857E+03  0.271565904725E+03  0.267358770612E+03
  0.262922892493E+03  0.258136284691E+03  0.252908012376E+03  0.247174590602E+03  0.240895652226E+03
  0.234049608119E+03  0.226629737865E+03  0.218640930095E+03  0.210097146145E+03  0.201019585430E+03
  0.191435476144E+03  0.181377381092E+03  0.170882900581E+03  0.159994643109E+03  0.148760353092E+03
  0.137233077377E+03  0.125471272811E+03  0.113538765777E+03  0.101504514636E+03  0.894421906765E+02
  0.774297028935E+02  0.655489416160E+02  0.538861591675E+02  0.425334439542E+02  0.315914944643E+02
  0.211731797600E+02  0.114061470368E+02  0.243141521775E+01 -0.560555934953E+01 -0.125733299367E+02
 -0.183807417701E+02 -0.230051843252E+02 -0.265143255764E+02 -0.290722257028E+02 -0.309219516663E+02
 -0.323440631534E+02 -0.336050972556E+02 -0.349209254450E+02 -0.364492721803E+02 -0.383028863121E+02
 -0.405649596150E+02 -0.432966439688E+02 -0.465381285033E+02 -0.503086297843E+02 -0.546081988242E+02
 -0.594210732364E+02 -0.647191221385E+02 -0.704643365314E+02 -0.766100913927E+02 -0.831014437293E+02
 -0.898749697594E+02 -0.968587059419E+02 -0.103972733001E+03 -0.111130740196E+03 -0.118242342567E+03
 -0.125214827655E+03 -0.131951511511E+03 -0.138343167788E+03 -0.144251497239E+03 -0.149491781083E+03
 -0.153833624515E+03 -0.157044100710E+03 -0.158985810049E+03 -0.159744217999E+03 -0.159685171935E+03
 -0.159314984428E+03 -0.159013863499E+03 -0.158916187092E+03 -0.159007746557E+03 -0.159259376930E+03
 -0.159682642177E+03 -0.160321537908E+03 -0.161224074941E+03 -0.162421022310E+03 -0.163919599381E+03
 -0.165707611151E+03 -0.167760756745E+03 -0.170048648748E+03 -0.172538342831E+03 -0.175195841389E+03
 -0.177986396983E+03 -0.180874285626E+03 -0.183822484562E+03 -0.186792529081E+03 -0.189744713219E+03
 -0.192638689987E+03 -0.195434378982E+03 -0.198092822382E+03 -0.200576498160E+03 -0.202848656664E+03
 -0.204871979914E+03 -0.206608059578E+03 -0.208020426772E+03 -0.209082849123E+03 -0.209790764218E+03
 -0.210168802794E+03 -0.210267203148E+03 -0.210146929378E+03 -0.209862231204E+03 -0.209450410036E+03
 -0.208931170937E+03 -0.208311394453E+03 -0.207590392364E+03 -0.206763451865E+03 -0.205823758971E+03
 -0.204763459666E+03 -0.203574423011E+03 -0.202248903198E+03 -0.200780109543E+03 -0.199162693546E+03
 -0.197392959252E+03 -0.195469105243E+03 -0.193391301915E+03 -0.191161559105E+03 -0.188783684481E+03
 -0.186263155978E+03 -0.183606916241E+03 -0.180823229059E+03 -0.177921468198E+03 -0.174911923042E+03
 -0.171805595611E+03 -0.168614002047E+03 -0.165348977258E+03 -0.162022486581E+03 -0.158646450039E+03
 -0.155232576510E+03 -0.151792215114E+03 -0.148336221816E+03 -0.144874848311E+03 -0.141417648689E+03
 -0.137973414376E+03 -0.134550128871E+03 -0.131154949344E+03 -0.127794211739E+03 -0.124473418817E+03
 -0.121197343766E+03 -0.117969998078E+03 -0.114794731479E+03 -0.111674274445E+03 -0.108610805152E+03
 -0.105606008867E+03 -0.102661148904E+03 -0.997771245082E+02 -0.969545353220E+02 -0.941937377384E+02
 -0.914948957238E+02 -0.888580233101E+02 -0.862830174905E+02 -0.837696808811E+02 -0.813177345367E+02
 -0.789268221784E+02 -0.765965078444E+02 -0.743262694337E+02 -0.721154908066E+02 -0.699634550663E+02
 -0.678693414524E+02 -0.658322280243E+02 -0.638511015200E+02 -0.619248752883E+02 -0.600524150677E+02
 -0.582325709302E+02 -0.564642103274E+02 -0.547462517639E+02 -0.530776892864E+02 -0.514576059345E+02
 -0.498851714666E+02 -0.483596232894E+02 -0.468802322584E+02 -0.454462581044E+02 -0.440569017199E+02
 -0.427112627030E+02 -0.414083098793E+02 -0.401468699830E+02 -0.389256359238E+02 -0.377431921535E+02
 -0.365980517149E+02 -0.354886982746E+02 -0.344136268495E+02 -0.333713785432E+02 -0.323605666848E+02
 -0.313798936956E+02 -0.304281594291E+02
 core charge-density
  0.271027975334E+00  0.285195015276E+00  0.300095322101E+00  0.315766253336E+00  0.332247018152E+00
  0.349578764660E+00  0.367804670939E+00  0.386970039903E+00  0.407122398147E+00  0.428311598878E+00
  0.450589929072E+00  0.474012220966E+00  0.498635968016E+00  0.524521445430E+00  0.551731835396E+00
  0.580333357120E+00  0.610395401771E+00  0.641990672441E+00  0.675195329206E+00  0.710089139380E+00
  0.746755633023E+00  0.785282263784E+00  0.825760575103E+00  0.868286371827E+00  0.912959897242E+00
  0.959886015524E+00  0.100917439957E+01  0.106093972420E+01  0.111530186454E+01  0.117238609964E+01
  0.123232332107E+01  0.129525024628E+01  0.136130963661E+01  0.143065051963E+01  0.150342841542E+01
  0.157980556653E+01  0.165995117110E+01  0.174404161864E+01  0.183226072789E+01  0.192479998620E+01
  0.202185878947E+01  0.212364468207E+01  0.223037359557E+01  0.234227008534E+01  0.245956756395E+01
  0.258250852978E+01  0.271134478976E+01  0.284633767440E+01  0.298775824347E+01  0.313588748046E+01
  0.329101647363E+01  0.345344658150E+01  0.362348958020E+01  0.380146778999E+01  0.398771417810E+01
  0.418257243469E+01  0.438639701839E+01  0.459955316801E+01  0.482241687612E+01  0.505537482053E+01
  0.529882424895E+01  0.555317281199E+01  0.581883833933E+01  0.609624855356E+01  0.638584071570E+01
  0.668806119635E+01  0.700336496579E+01  0.733221499615E+01  0.767508156848E+01  0.803244147689E+01
  0.840477712217E+01  0.879257548630E+01  0.919632697955E+01  0.961652415118E+01  0.100536602549E+02
  0.105082276595E+02  0.109807160956E+02  0.114716107289E+02  0.119813900503E+02  0.125105235734E+02
  0.130594693305E+02  0.136286711579E+02  0.142185557606E+02  0.148295295512E+02  0.154619752523E+02
  0.161162482578E+02  0.167926727469E+02  0.174915375473E+02  0.182130917432E+02  0.189575400290E+02
  0.197250378090E+02  0.205156860463E+02  0.213295258679E+02  0.221665329345E+02  0.230266115882E+02
  0.239095887956E+02  0.248152079054E+02  0.257431222480E+02  0.266928886075E+02  0.276639606032E+02
  0.286556820227E+02  0.296672801579E+02  0.306978591996E+02  0.317463937556E+02  0.328117225663E+02
  0.338925424975E+02  0.349874029024E+02  0.360947004512E+02  0.372126745384E+02  0.383394033861E+02
  0.394728009718E+02  0.406106149188E+02  0.417504254951E+02  0.428896458781E+02  0.440255238474E+02
  0.451551450750E+02  0.462754381915E+02  0.473831818044E+02  0.484750136524E+02  0.495474420753E+02
  0.505968599765E+02  0.516195614504E+02  0.526117612317E+02  0.535696171152E+02  0.544892554682E+02
  0.553667999399E+02  0.561984034336E+02  0.569802833784E+02  0.577087602873E+02  0.583802995400E+02
  0.589915562729E+02  0.595394231879E+02  0.600210810229E+02  0.604340513438E+02  0.607762512300E+02
  0.610460493303E+02  0.612423226672E+02  0.613645134593E+02  0.614126851255E+02  0.613875765227E+02
  0.612906533594E+02  0.611241556206E+02  0.608911397403E+02  0.605955141645E+02  0.602420668737E+02
  0.598364833690E+02  0.593853535941E+02  0.588961662492E+02  0.583772889777E+02  0.578379329615E+02
  0.572881005651E+02  0.567385148094E+02  0.562005296597E+02  0.556860203589E+02  0.552072533518E+02
  0.547767357089E+02  0.544070443893E+02  0.541106361655E+02  0.538996395761E+02  0.537856308598E+02
  0.537793964678E+02  0.538906854190E+02  0.541279554790E+02  0.544981177529E+02  0.550062853298E+02
  0.556555316087E+02  0.564466653042E+02  0.573780291121E+02  0.584453295832E+02  0.596415059319E+02
  0.609566455307E+02  0.623779536420E+02  0.638897844902E+02  0.654737400547E+02  0.671088419425E+02
  0.687717803647E+02  0.704372425941E+02  0.720783213195E+02  0.736670010533E+02  0.751747182145E+02
  0.765729877484E+02  0.778340862004E+02  0.789317781238E+02  0.798420696541E+02  0.805439701378E+02
  0.810202399857E+02  0.812581005644E+02  0.812498801089E+02  0.809935684573E+02  0.804932530841E+02
  0.797594095241E+02  0.788090210426E+02  0.776655053619E+02  0.763584305286E+02  0.749230075900E+02
  0.733993546272E+02  0.718315347554E+02  0.702663797608E+02  0.687521208326E+02  0.673368580008E+02
  0.660669099937E+02  0.649850957981E+02  0.641290077507E+02  0.635293430262E+02  0.632083654297E+02
  0.631785719713E+02  0.634416382307E+02  0.639877128890E+02  0.647951234682E+02  0.658305436662E+02
  0.670496560085E+02  0.683983213147E+02  0.698142417742E+02  0.712290805449E+02  0.725709752351E+02
  0.737673604388E+02  0.747479922965E+02  0.754480482551E+02  0.758111601193E+02  0.757922303466E+02
  0.753598814697E+02  0.744983968746E+02  0.732090277890E+02  0.715105659665E+02  0.694391134421E+02
  0.670470188212E+02  0.644009922459E+02  0.615794563610E+02  0.586692358418E+02  0.557617304913E+02
  0.529487534200E+02  0.503182433253E+02  0.479500751879E+02  0.459121947218E+02  0.442572877906E+02
  0.430201683857E+02  0.422160328033E+02  0.418396865048E+02  0.418658143791E+02  0.422503272494E+02
  0.429327568140E+02  0.438395541716E+02  0.448880314463E+02  0.459906530004E+02  0.470594343954E+02
  0.480102340949E+02  0.487667311073E+02  0.492638715490E+02  0.494505936056E+02  0.492916876687E+02
  0.487687142671E+02  0.478799735453E+02  0.466395856518E+02  0.450757954596E+02  0.432286552381E+02
  0.411472647189E+02  0.388867596236E+02  0.365052382098E+02  0.340608022549E+02  0.316088662715E+02
  0.291998595916E+02  0.268774108877E+02  0.246770688665E+02  0.226255761109E+02  0.207406791283E+02
  0.190314245354E+02  0.174988687024E+02  0.161371129999E+02  0.149345680354E+02  0.138753534304E+02
  0.129407452266E+02  0.121105921789E+02  0.113646220264E+02  0.106835704136E+02  0.100500841688E+02
  0.944936903690E+01  0.886957997525E+01  0.830197086253E+01  0.774083330715E+01  0.718326199207E+01
  0.662878847157E+01  0.607892699858E+01  0.553667501225E+01  0.500600725860E+01  0.449139662110E+01
  0.399738703716E+01  0.352824011571E+01  0.308765979054E+01  0.267859874490E+01  0.230314859465E+01
  0.196250080707E+01  0.165696968194E+01  0.138606219365E+01  0.114858284043E+01  0.942760113644E+00
  0.766382560056E+00  0.616934602718E+00  0.491724275696E+00  0.387997199437E+00  0.303033195933E+00
  0.234223790671E+00  0.179130393883E+00  0.135524158180E+00  0.101409370090E+00  0.750327716170E-01
  0.548814653483E-01  0.396720841407E-01  0.283337591574E-01  0.199871516882E-01  0.139214735733E-01
  0.957104934514E-02  0.649260282783E-02  0.434410571116E-02  0.286572169883E-02  0.186312514222E-02
  0.119327141845E-02  0.752545810292E-03  0.467113986358E-03  0.285233885874E-03  0.171258455491E-03
  0.101053652749E-03  0.585692196389E-04  0.333245516409E-04  0.186032201435E-04  0.101831827387E-04
  0.546240813638E-05  0.286955273386E-05  0.147532733812E-05  0.741842141374E-06  0.364567766862E-06
  0.174973828948E-06  0.819539369605E-07  0.374310027952E-07  0.166575039205E-07  0.721681647682E-08
  0.304135607281E-08  0.124563554912E-08  0.495359122344E-09  0.191092896249E-09  0.714396984311E-10
  0.258562688616E-10  0.905040532233E-11  0.306037411044E-11  0.998611990045E-12  0.314071761528E-12
  0.950927252223E-13  0.276828360655E-13  0.773854673340E-14  0.207451431389E-14  0.532581680596E-15
  0.130754031657E-15  0.306542596603E-16  0.685239439041E-17  0.145827396280E-17  0.294978632024E-18
  0.566220074396E-19  0.102965136910E-19
 kinetic energy-density
  0.829005585339E+07  0.821225459767E+07  0.813581690782E+07  0.806073940246E+07  0.798701868033E+07
  0.791465134558E+07  0.784363403722E+07  0.777396346265E+07  0.770563640865E+07  0.763864978767E+07
  0.757300065056E+07  0.750868621549E+07  0.744570389737E+07  0.738405132987E+07  0.732372639042E+07
  0.726472722626E+07  0.720705229223E+07  0.715070032109E+07  0.709567040620E+07  0.704196200844E+07
  0.698957494537E+07  0.693850941333E+07  0.688876605017E+07  0.684034587068E+07  0.679325037260E+07
  0.674748145818E+07  0.670304149742E+07  0.665993331164E+07  0.661816020613E+07  0.657772593515E+07
  0.653863473932E+07  0.650089132608E+07  0.646450088774E+07  0.642946908424E+07  0.639580205065E+07
  0.636350640142E+07  0.633258921265E+07  0.630305803465E+07  0.627492087473E+07  0.624818620885E+07
  0.622286296188E+07  0.619896051350E+07  0.617648869014E+07  0.615545775939E+07  0.613587842564E+07
  0.611776182286E+07  0.610111950840E+07  0.608596345629E+07  0.607230604736E+07  0.606016006145E+07
  0.604953866571E+07  0.604045540298E+07  0.603292417790E+07  0.602695924119E+07  0.602257517177E+07
  0.601978685637E+07  0.601860946641E+07  0.601905843180E+07  0.602114941130E+07  0.602489825926E+07
  0.603032098812E+07  0.603743372635E+07  0.604625267268E+07  0.605679404221E+07  0.606907401046E+07
  0.608310864927E+07  0.609891385519E+07  0.611650527516E+07  0.613589821506E+07  0.615710755710E+07
  0.618014764616E+07  0.620503218849E+07  0.623177412724E+07  0.626038551054E+07  0.629087735491E+07
  0.632325948616E+07  0.635754037956E+07  0.639372697830E+07  0.643182450683E+07  0.647183626242E+07
  0.651376339986E+07  0.655760469427E+07  0.660335629547E+07  0.665101146086E+07  0.670056027586E+07
  0.675198935372E+07  0.680528152383E+07  0.686041549906E+07  0.691736552521E+07  0.697610101805E+07
  0.703658617752E+07  0.709877959021E+07  0.716263381247E+07  0.722809493990E+07  0.729510216126E+07
  0.736358730057E+07  0.743347434526E+07  0.750467896607E+07  0.757710802907E+07  0.765065910062E+07
  0.772521995148E+07  0.780066806112E+07  0.787687012683E+07  0.795368158028E+07  0.803094612104E+07
  0.810849526488E+07  0.818614792025E+07  0.826370999459E+07  0.834097403937E+07  0.841771894194E+07
  0.849370967055E+07  0.856869708460E+07  0.864241781678E+07  0.871459423846E+07  0.878493451934E+07
  0.885313279167E+07  0.891886943119E+07  0.898181146604E+07  0.904161312651E+07  0.909791654680E+07
  0.915035263187E+07  0.919854210063E+07  0.924209671642E+07  0.928062071678E+07  0.931371245096E+07
  0.934096623416E+07  0.936197442669E+07  0.937632973987E+07  0.938362777688E+07  0.938346980308E+07
  0.937546574762E+07  0.935923742910E+07  0.933442199271E+07  0.930067555099E+07  0.925767700262E+07
  0.920513201075E+07  0.914277711026E+07  0.907038391046E+07  0.898776335168E+07  0.889476997299E+07
  0.879130613613E+07  0.867732615043E+07  0.855284023670E+07  0.841791825964E+07  0.827269315989E+07
  0.811736400747E+07  0.795219860084E+07  0.777753552952E+07  0.759378562296E+07  0.740143270625E+07
  0.720103358946E+07  0.699321721882E+07  0.677868292916E+07  0.655819773992E+07  0.633259265121E+07
  0.610275790324E+07  0.586963717706E+07  0.563422072629E+07  0.539753744795E+07  0.516064591950E+07
  0.492462445741E+07  0.469056027971E+07  0.445953795203E+07  0.423262702659E+07  0.401086963299E+07
  0.379526751786E+07  0.358676927375E+07  0.338625776963E+07  0.319453802438E+07  0.301232572828E+07
  0.284023661779E+07  0.267877691464E+07  0.252833504727E+07  0.238917487162E+07  0.226143060368E+07
  0.214510366027E+07  0.204006157978E+07  0.194603916203E+07  0.186264192526E+07  0.178935193088E+07
  0.172553597366E+07  0.167045608290E+07  0.162328221923E+07  0.158310699940E+07  0.154896222141E+07
  0.151983691109E+07  0.149469655721E+07  0.147250315923E+07  0.145223566718E+07  0.143291036087E+07
  0.141360069111E+07  0.139345608658E+07  0.137171923006E+07  0.134774131212E+07  0.132099479855E+07
  0.129108328457E+07  0.125774806931E+07  0.122087115634E+07  0.118047448244E+07  0.113671527423E+07
  0.108987755559E+07  0.104035993998E+07  0.988659974708E+06  0.935355436877E+06  0.881083129537E+06
  0.826515879939E+06  0.772338590779E+06  0.719224191319E+06  0.667810578854E+06  0.618679236191E+06
  0.572336282551E+06  0.529196952340E+06  0.489573464087E+06  0.453667129406E+06  0.421564841029E+06
  0.393240140740E+06  0.368558843020E+06  0.347288965900E+06  0.329114494103E+06  0.313652295467E+06
  0.300471345060E+06  0.289113299419E+06  0.279113408024E+06  0.270020751700E+06  0.261416855131E+06
  0.252931825497E+06  0.244257312924E+06  0.235155768237E+06  0.225465673031E+06  0.215102637234E+06
  0.204056487247E+06  0.192384693553E+06  0.180202687941E+06  0.167671773415E+06  0.154985399625E+06
  0.142354595579E+06  0.129993328305E+06  0.118104705492E+06  0.106868902926E+06  0.964337293964E+05
  0.869086027000E+05  0.783616960798E+05  0.708198248276E+05  0.642703336305E+05  0.586651196122E+05
  0.539262098809E+05  0.499527923985E+05  0.466289751214E+05  0.438317020031E+05  0.414382657788E+05
  0.393329345542E+05  0.374123214708E+05  0.355892685258E+05  0.337951652524E+05  0.319807597578E+05
  0.301156290494E+05  0.281865519758E+05  0.261950698488E+05  0.241545305552E+05  0.220868979947E+05
  0.200195688978E+05  0.179824139495E+05  0.160051774411E+05  0.141153558617E+05  0.123365893489E+05
  0.106876134744E+05  0.918169188677E+04  0.782650638322E+04  0.662440859805E+04  0.557295193573E+04
  0.466562846135E+04  0.389271716735E+04  0.324222402289E+04  0.270076710532E+04  0.225439681823E+04
  0.188928519397E+04  0.159226871671E+04  0.135124483025E+04  0.115543208481E+04  0.995508862900E+03
  0.863648440931E+03  0.753470163812E+03  0.659927494246E+03  0.579153502122E+03  0.508282480273E+03
  0.445268252444E+03  0.388692107243E+03  0.337620247618E+03  0.291448243104E+03  0.249789017084E+03
  0.212382889114E+03  0.179030078724E+03  0.149547541737E+03  0.123740447491E+03  0.101389041403E+03
  0.822453541427E+02  0.660367306031E+02  0.524733691280E+02  0.412576511533E+02  0.320936279397E+02
  0.246955647492E+02  0.187948981155E+02  0.141453227395E+02  0.105259923486E+02  0.774299900424E+01
  0.562940252651E+01  0.404412892115E+01  0.287006085033E+01  0.201161735665E+01  0.139207699212E+01
  0.950847489972E+00  0.640833182943E+00  0.426003515920E+00  0.279224713295E+00  0.180383344783E+00
  0.114805193731E+00  0.719550182920E-01  0.443913636925E-01  0.269444104996E-01  0.160826738150E-01
  0.943507514884E-02  0.543750578467E-02  0.307668113015E-02  0.170822859693E-02  0.930108438609E-03
  0.496340097925E-03  0.259422628077E-03  0.132719202443E-03  0.664143126036E-04  0.324852225138E-04
  0.155199351456E-04  0.723680223530E-05  0.329092603764E-05  0.145832675283E-05  0.629210772834E-06
  0.264100763522E-06  0.107743459077E-06  0.426837889926E-07  0.164049807142E-07  0.611090128910E-08
  0.220400720275E-08  0.768855675255E-09  0.259137456412E-09  0.842910378361E-10  0.264297408158E-10
  0.797885996111E-11  0.231623581291E-11  0.645739802504E-12  0.172657472946E-12  0.442148145029E-13
  0.108289864398E-13  0.253285133467E-14  0.564909553420E-15  0.119955915599E-15  0.242127643890E-16
  0.463802410951E-17  0.841690150732E-18
 mkinetic energy-density pseudized
  0.298780129985E-05  0.318527225232E-05  0.339579453338E-05  0.362023073662E-05  0.385950046646E-05
  0.411458410620E-05  0.438652683502E-05  0.467644291048E-05  0.498552023407E-05  0.531502521857E-05
  0.566630797696E-05  0.604080785442E-05  0.644005932592E-05  0.686569828351E-05  0.731946873925E-05
  0.780322997112E-05  0.831896414122E-05  0.886878441745E-05  0.945494363201E-05  0.100798435122E-04
  0.107460445210E-04  0.114562763488E-04  0.122134490974E-04  0.130206652043E-04  0.138812321544E-04
  0.147986760321E-04  0.157767559692E-04  0.168194795473E-04  0.179311192185E-04  0.191162298115E-04
  0.203796671943E-04  0.217266081707E-04  0.231625716915E-04  0.246934414683E-04  0.263254900805E-04
  0.280654046775E-04  0.299203143777E-04  0.318978194799E-04  0.340060226042E-04  0.362535618917E-04
  0.386496463986E-04  0.412040938286E-04  0.439273707606E-04  0.468306355336E-04  0.499257839671E-04
  0.532254981026E-04  0.567432981667E-04  0.604935979687E-04  0.644917639596E-04  0.687541781937E-04
  0.732983054525E-04  0.781427648043E-04  0.833074058931E-04  0.888133902704E-04  0.946832781015E-04
  0.100941120603E-03  0.107612558589E-03  0.114724927531E-03  0.122307369562E-03  0.130390952880E-03
  0.139008799046E-03  0.148196218699E-03  0.157990856227E-03  0.168432844017E-03  0.179564966890E-03
  0.191432837398E-03  0.204085082723E-03  0.217573543913E-03  0.231953488290E-03  0.247283835903E-03
  0.263627400939E-03  0.281051149092E-03  0.299626471939E-03  0.319429479459E-03  0.340541311869E-03
  0.363048472086E-03  0.387043180146E-03  0.412623751058E-03  0.439894997626E-03  0.468968659889E-03
  0.499963862949E-03  0.533007605052E-03  0.568235277927E-03  0.605791221513E-03  0.645829315346E-03
  0.688513609030E-03  0.734018994376E-03  0.782531921955E-03  0.834251165010E-03  0.889388633855E-03
  0.948170244084E-03  0.101083684217E-02  0.107764519220E-02  0.114886902789E-02  0.122480017402E-02
  0.130574974207E-02  0.139204940479E-02  0.148405275506E-02  0.158213675451E-02  0.168670327788E-02
  0.179818075940E-02  0.191702594800E-02  0.204372577851E-02  0.217879936643E-02  0.232280013459E-02
  0.247631808027E-02  0.263998219217E-02  0.281446302703E-02  0.300047545650E-02  0.319878159551E-02
  0.341019392411E-02  0.363557861553E-02  0.387585908416E-02  0.413201976789E-02  0.440511016029E-02
  0.469624910923E-02  0.500662939933E-02  0.533752263729E-02  0.569028445967E-02  0.606636008486E-02
  0.646729023159E-02  0.689471742841E-02  0.735039273979E-02  0.783618293643E-02  0.835407813903E-02
  0.890619996677E-02  0.949481022384E-02  0.101223201594E-01  0.107913003388E-01  0.115044911667E-01
  0.122648141043E-01  0.130753836273E-01  0.139395199729E-01  0.148607627277E-01  0.158428853128E-01
  0.168899104236E-01  0.180061264886E-01  0.191961052141E-01  0.204647202852E-01  0.218171673003E-01
  0.232589850200E-01  0.247960780161E-01  0.264347408140E-01  0.281816836253E-01  0.300440597759E-01
  0.320294949410E-01  0.341461183042E-01  0.364025957695E-01  0.388081653576E-01  0.413726749325E-01
  0.441066224088E-01  0.470211986038E-01  0.501283329061E-01  0.534407419450E-01  0.569719814575E-01
  0.607365015606E-01  0.647497056507E-01  0.690280131684E-01  0.735889264770E-01  0.784511021248E-01
  0.836344267750E-01  0.891600981051E-01  0.950507109989E-01  0.101330349373E+00  0.108024684000E+00
  0.115161076720E+00  0.122768691445E+00  0.130878612396E+00  0.139523970043E+00  0.148740075222E+00
  0.158564561979E+00  0.169037539668E+00  0.180201754916E+00  0.192102764060E+00  0.204789116734E+00
  0.218312551298E+00  0.232728202852E+00  0.248094824635E+00  0.264475023623E+00  0.281935511225E+00
  0.300547369998E+00  0.320386337371E+00  0.341533107412E+00  0.364073651747E+00  0.388099560770E+00
  0.413708406375E+00  0.441004127488E+00  0.470097439747E+00  0.501106270740E+00  0.534156222290E+00
  0.569381061346E+00  0.606923241084E+00  0.646934453946E+00  0.689576218360E+00  0.735020500984E+00
  0.783450376399E+00  0.835060726200E+00  0.890058979550E+00  0.948665897267E+00  0.101111640162E+01
  0.107766045400E+01  0.114856398273E+01  0.122410986319E+01  0.130459895264E+01  0.139035118183E+01
  0.148170670572E+01  0.157902711542E+01  0.168269671342E+01  0.179312385396E+01  0.191074235048E+01
  0.203601295148E+01  0.216942488621E+01  0.231149748097E+01  0.246278184668E+01  0.262386263749E+01
  0.279535987995E+01  0.297793087127E+01  0.317227214449E+01  0.337912149716E+01  0.359926007917E+01
  0.383351453377E+01  0.408275918421E+01  0.434791825671E+01  0.462996812793E+01  0.492993958300E+01
  0.524892006699E+01  0.558805590945E+01  0.594855449798E+01  0.633168637230E+01  0.673878720565E+01
  0.717125963447E+01  0.763057489142E+01  0.811827418954E+01  0.863596979734E+01  0.918534573596E+01
  0.976815801946E+01  0.103862343481E+02  0.110414731526E+02  0.117358418729E+02  0.124713743411E+02
  0.132501671207E+02  0.140743746365E+02  0.149462029103E+02  0.158679016951E+02  0.168417547803E+02
  0.178700682114E+02  0.189551561465E+02  0.200993240433E+02  0.213048488394E+02  0.225739557662E+02
  0.239087914022E+02  0.253113925481E+02  0.267836504783E+02  0.283272701023E+02  0.299437235488E+02
  0.316341976781E+02  0.333995350215E+02  0.352401676590E+02  0.371560435715E+02  0.391465450464E+02
  0.412103987883E+02  0.433455774832E+02  0.455491927060E+02  0.478173792408E+02  0.501451711225E+02
  0.525263700078E+02  0.549534068614E+02  0.574171984036E+02  0.599070003269E+02  0.624102599637E+02
  0.649124718783E+02  0.673970407895E+02  0.698451572963E+02  0.722356930979E+02  0.745451237530E+02
  0.767474885161E+02  0.788143983766E+02  0.807151050904E+02  0.824166456512E+02  0.838840782172E+02
  0.850808268627E+02  0.859691534879E+02  0.865107755768E+02  0.866676479584E+02  0.864029249523E+02
  0.856821158462E+02  0.844744410540E+02  0.827543879795E+02  0.805034539261E+02  0.777120476891E+02
  0.743815011104E+02  0.705261162891E+02  0.661751429807E+02  0.613745439379E+02  0.561883640548E+02
  0.506994734593E+02  0.450094075254E+02  0.392369819768E+02  0.335153245077E+02  0.279869436072E+02
  0.227964611149E+02  0.180806808881E+02  0.139557680516E+02  0.105014901470E+02  0.774274270601E+01
  0.562940252651E+01  0.404412892115E+01  0.287006085033E+01  0.201161735665E+01  0.139207699212E+01
  0.950847489972E+00  0.640833182943E+00  0.426003515920E+00  0.279224713295E+00  0.180383344783E+00
  0.114805193731E+00  0.719550182920E-01  0.443913636925E-01  0.269444104996E-01  0.160826738150E-01
  0.943507514884E-02  0.543750578467E-02  0.307668113015E-02  0.170822859693E-02  0.930108438609E-03
  0.496340097925E-03  0.259422628077E-03  0.132719202443E-03  0.664143126036E-04  0.324852225138E-04
  0.155199351456E-04  0.723680223530E-05  0.329092603764E-05  0.145832675283E-05  0.629210772834E-06
  0.264100763522E-06  0.107743459077E-06  0.426837889926E-07  0.164049807142E-07  0.611090128910E-08
  0.220400720275E-08  0.768855675255E-09  0.259137456412E-09  0.842910378361E-10  0.264297408158E-10
  0.797885996111E-11  0.231623581291E-11  0.645739802504E-12  0.172657472946E-12  0.442148145029E-13
  0.108289864398E-13  0.253285133467E-14  0.564909553420E-15  0.119955915599E-15  0.242127643890E-16
  0.463802410951E-17  0.841690150732E-18
 local pseudopotential core
 -0.385655918947E+03 -0.385656257768E+03 -0.385656585908E+03 -0.385656903704E+03 -0.385657211482E+03
 -0.385657509556E+03 -0.385657798232E+03 -0.385658077804E+03 -0.385658348558E+03 -0.385658610771E+03
 -0.385658864711E+03 -0.385659110638E+03 -0.385659348802E+03 -0.385659579449E+03 -0.385659802812E+03
 -0.385660019120E+03 -0.385660228594E+03 -0.385660431449E+03 -0.385660627889E+03 -0.385660818117E+03
 -0.385661002325E+03 -0.385661180702E+03 -0.385661353429E+03 -0.385661520683E+03 -0.385661682632E+03
 -0.385661839443E+03 -0.385661991273E+03 -0.385662138278E+03 -0.385662280606E+03 -0.385662418401E+03
 -0.385662551804E+03 -0.385662680948E+03 -0.385662805964E+03 -0.385662926978E+03 -0.385663044112E+03
 -0.385663157484E+03 -0.385663267206E+03 -0.385663373390E+03 -0.385663476140E+03 -0.385663575559E+03
 -0.385663671745E+03 -0.385663764795E+03 -0.385663854798E+03 -0.385663941844E+03 -0.385664026018E+03
 -0.385664107402E+03 -0.385664186073E+03 -0.385664262108E+03 -0.385664335580E+03 -0.385664406557E+03
 -0.385664475107E+03 -0.385664541293E+03 -0.385664605176E+03 -0.385664666814E+03 -0.385664726262E+03
 -0.385664783574E+03 -0.385664838799E+03 -0.385664891983E+03 -0.385664943171E+03 -0.385664992406E+03
 -0.385665039725E+03 -0.385665085166E+03 -0.385665128760E+03 -0.385665170541E+03 -0.385665210534E+03
 -0.385665248766E+03 -0.385665285258E+03 -0.385665320031E+03 -0.385665353100E+03 -0.385665384479E+03
 -0.385665414178E+03 -0.385665442205E+03 -0.385665468563E+03 -0.385665493254E+03 -0.385665516273E+03
 -0.385665537615E+03 -0.385665557271E+03 -0.385665575224E+03 -0.385665591459E+03 -0.385665605952E+03
 -0.385665618678E+03 -0.385665629605E+03 -0.385665638697E+03 -0.385665645914E+03 -0.385665651210E+03
 -0.385665654533E+03 -0.385665655826E+03 -0.385665655026E+03 -0.385665652063E+03 -0.385665646861E+03
 -0.385665639336E+03 -0.385665629396E+03 -0.385665616943E+03 -0.385665601869E+03 -0.385665584057E+03
 -0.385665563381E+03 -0.385665539706E+03 -0.385665512883E+03 -0.385665482756E+03 -0.385665449153E+03
 -0.385665411892E+03 -0.385665370777E+03 -0.385665325596E+03 -0.385665276123E+03 -0.385665222116E+03
 -0.385665163315E+03 -0.385665099442E+03 -0.385665030198E+03 -0.385664955265E+03 -0.385664874302E+03
 -0.385664786944E+03 -0.385664692802E+03 -0.385664591459E+03 -0.385664482470E+03 -0.385664365360E+03
 -0.385664239620E+03 -0.385664104708E+03 -0.385663960046E+03 -0.385663805014E+03 -0.385663638954E+03
 -0.385663461161E+03 -0.385663270883E+03 -0.385663067319E+03 -0.385662849612E+03 -0.385662616850E+03
 -0.385662368059E+03 -0.385662102199E+03 -0.385661818163E+03 -0.385661514767E+03 -0.385661190752E+03
 -0.385660844772E+03 -0.385660475393E+03 -0.385660081085E+03 -0.385659660217E+03 -0.385659211049E+03
 -0.385658731727E+03 -0.385658220272E+03 -0.385657674575E+03 -0.385657092387E+03 -0.385656471309E+03
 -0.385655808785E+03 -0.385655102089E+03 -0.385654348312E+03 -0.385653544355E+03 -0.385652686915E+03
 -0.385651772467E+03 -0.385650797254E+03 -0.385649757272E+03 -0.385648648250E+03 -0.385647465637E+03
 -0.385646204577E+03 -0.385644859896E+03 -0.385643426078E+03 -0.385641897240E+03 -0.385640267113E+03
 -0.385638529011E+03 -0.385636675806E+03 -0.385634699902E+03 -0.385632593197E+03 -0.385630347056E+03
 -0.385627952274E+03 -0.385625399035E+03 -0.385622676876E+03 -0.385619774643E+03 -0.385616680445E+03
 -0.385613381606E+03 -0.385609864610E+03 -0.385606115052E+03 -0.385602117574E+03 -0.385597855802E+03
 -0.385593312284E+03 -0.385588468414E+03 -0.385583304356E+03 -0.385577798968E+03 -0.385571929710E+03
 -0.385565672554E+03 -0.385559001888E+03 -0.385551890408E+03 -0.385544309010E+03 -0.385536226669E+03
 -0.385527610312E+03 -0.385518424688E+03 -0.385508632217E+03 -0.385498192845E+03 -0.385487063874E+03
 -0.385475199795E+03 -0.385462552095E+03 -0.385449069069E+03 -0.385434695603E+03 -0.385419372954E+03
 -0.385403038509E+03 -0.385385625535E+03 -0.385367062908E+03 -0.385347274819E+03 -0.385326180479E+03
 -0.385303693781E+03 -0.385279722961E+03 -0.385254170224E+03 -0.385226931351E+03 -0.385197895280E+03
 -0.385166943660E+03 -0.385133950376E+03 -0.385098781044E+03 -0.385061292472E+03 -0.385021332091E+03
 -0.384978737344E+03 -0.384933335041E+03 -0.384884940668E+03 -0.384833357659E+03 -0.384778376617E+03
 -0.384719774488E+03 -0.384657313681E+03 -0.384590741139E+03 -0.384519787343E+03 -0.384444165266E+03
 -0.384363569252E+03 -0.384277673831E+03 -0.384186132464E+03 -0.384088576208E+03 -0.383984612300E+03
 -0.383873822663E+03 -0.383755762314E+03 -0.383629957684E+03 -0.383495904841E+03 -0.383353067600E+03
 -0.383200875540E+03 -0.383038721892E+03 -0.382865961320E+03 -0.382681907572E+03 -0.382485831001E+03
 -0.382276955960E+03 -0.382054458043E+03 -0.381817461195E+03 -0.381565034665E+03 -0.381296189802E+03
 -0.381009876696E+03 -0.380704980652E+03 -0.380380318497E+03 -0.380034634716E+03 -0.379666597408E+03
 -0.379274794073E+03 -0.378857727215E+03 -0.378413809762E+03 -0.377941360320E+03 -0.377438598234E+03
 -0.376903638485E+03 -0.376334486410E+03 -0.375729032268E+03 -0.375085045635E+03 -0.374400169668E+03
 -0.373671915223E+03 -0.372897654869E+03 -0.372074616785E+03 -0.371199878594E+03 -0.370270361134E+03
 -0.369282822206E+03 -0.368233850337E+03 -0.367119858584E+03 -0.365937078438E+03 -0.364681553875E+03
 -0.363349135612E+03 -0.361935475648E+03 -0.360436022168E+03 -0.358846014909E+03 -0.357160481113E+03
 -0.355374232195E+03 -0.353481861311E+03 -0.351477742016E+03 -0.349356028271E+03 -0.347110656100E+03
 -0.344735347276E+03 -0.342223615491E+03 -0.339568775601E+03 -0.336763956658E+03 -0.333802119635E+03
 -0.330676080978E+03 -0.327378543438E+03 -0.323902135983E+03 -0.320239465124E+03 -0.316383180565E+03
 -0.312326058872E+03 -0.308061109786E+03 -0.303581710847E+03 -0.298881777192E+03 -0.293955974482E+03
 -0.288799983780E+03 -0.283410827291E+03 -0.277787262680E+03 -0.271930250166E+03 -0.265843489604E+03
 -0.259534012936E+03 -0.253012799119E+03 -0.246295353375E+03 -0.239402161705E+03 -0.232358903102E+03
 -0.225196297311E+03 -0.217949527501E+03 -0.210657354652E+03 -0.203361310093E+03 -0.196105433502E+03
 -0.188936259006E+03 -0.181900725784E+03 -0.175038455962E+03 -0.168371195714E+03 -0.161935638677E+03
 -0.156322044726E+03 -0.151266260772E+03 -0.146774442538E+03 -0.142850293419E+03 -0.138858195305E+03
 -0.134484078149E+03 -0.130247776176E+03 -0.126145222753E+03 -0.122172095984E+03 -0.118324243196E+03
 -0.114597666908E+03 -0.110988513399E+03 -0.107493061750E+03 -0.104107716389E+03 -0.100829000465E+03
 -0.976535499778E+02 -0.945781092572E+02 -0.915995265269E+02 -0.887147501906E+02 -0.859208252992E+02
 -0.832148902878E+02 -0.805941739030E+02 -0.780559922796E+02 -0.755977461146E+02 -0.732169180672E+02
 -0.709110699508E+02 -0.686778404807E+02 -0.665149428606E+02 -0.644201619309E+02 -0.623913529410E+02
 -0.604264368799E+02 -0.585234032476E+02 -0.566803025235E+02 -0.548952472190E+02 -0.531664092754E+02
 -0.514920182284E+02 -0.498703593547E+02 -0.482997719418E+02 -0.467786475900E+02 -0.453054285520E+02
 -0.438786061369E+02 -0.424967191796E+02 -0.411583525196E+02 -0.398621355706E+02 -0.386067409058E+02
 -0.373908828980E+02 -0.362133164079E+02 -0.350728355067E+02 -0.339682722425E+02 -0.328984954455E+02
 -0.318624095694E+02 -0.308589535704E+02
 pspotential valence only
 -0.261463360874E+03 -0.261463699723E+03 -0.261464027894E+03 -0.261464345723E+03 -0.261464653537E+03
 -0.261464951648E+03 -0.261465240364E+03 -0.261465519978E+03 -0.261465790777E+03 -0.261466053039E+03
 -0.261466307031E+03 -0.261466553012E+03 -0.261466791236E+03 -0.261467021945E+03 -0.261467245375E+03
 -0.261467461754E+03 -0.261467671304E+03 -0.261467874239E+03 -0.261468070766E+03 -0.261468261085E+03
 -0.261468445391E+03 -0.261468623873E+03 -0.261468796711E+03 -0.261468964083E+03 -0.261469126159E+03
 -0.261469283104E+03 -0.261469435078E+03 -0.261469582237E+03 -0.261469724728E+03 -0.261469862697E+03
 -0.261469996286E+03 -0.261470125628E+03 -0.261470250855E+03 -0.261470372094E+03 -0.261470489468E+03
 -0.261470603095E+03 -0.261470713090E+03 -0.261470819564E+03 -0.261470922624E+03 -0.261471022373E+03
 -0.261471118912E+03 -0.261471212336E+03 -0.261471302740E+03 -0.261471390213E+03 -0.261471474842E+03
 -0.261471556710E+03 -0.261471635899E+03 -0.261471712485E+03 -0.261471786544E+03 -0.261471858148E+03
 -0.261471927365E+03 -0.261471994263E+03 -0.261472058905E+03 -0.261472121352E+03 -0.261472181663E+03
 -0.261472239894E+03 -0.261472296099E+03 -0.261472350329E+03 -0.261472402631E+03 -0.261472453054E+03
 -0.261472501639E+03 -0.261472548430E+03 -0.261472593464E+03 -0.261472636779E+03 -0.261472678408E+03
 -0.261472718384E+03 -0.261472756735E+03 -0.261472793490E+03 -0.261472828672E+03 -0.261472862304E+03
 -0.261472894405E+03 -0.261472924992E+03 -0.261472954080E+03 -0.261472981680E+03 -0.261473007802E+03
 -0.261473032452E+03 -0.261473055633E+03 -0.261473077346E+03 -0.261473097588E+03 -0.261473116354E+03
 -0.261473133634E+03 -0.261473149417E+03 -0.261473163686E+03 -0.261473176421E+03 -0.261473187601E+03
 -0.261473197196E+03 -0.261473205177E+03 -0.261473211506E+03 -0.261473216143E+03 -0.261473219043E+03
 -0.261473220156E+03 -0.261473219425E+03 -0.261473216790E+03 -0.261473212182E+03 -0.261473205528E+03
 -0.261473196748E+03 -0.261473185754E+03 -0.261473172451E+03 -0.261473156737E+03 -0.261473138501E+03
 -0.261473117622E+03 -0.261473093971E+03 -0.261473067409E+03 -0.261473037785E+03 -0.261473004939E+03
 -0.261472968698E+03 -0.261472928875E+03 -0.261472885272E+03 -0.261472837674E+03 -0.261472785852E+03
 -0.261472729562E+03 -0.261472668541E+03 -0.261472602508E+03 -0.261472531163E+03 -0.261472454184E+03
 -0.261472371228E+03 -0.261472281928E+03 -0.261472185892E+03 -0.261472082701E+03 -0.261471971907E+03
 -0.261471853034E+03 -0.261471725569E+03 -0.261471588970E+03 -0.261471442654E+03 -0.261471286001E+03
 -0.261471118349E+03 -0.261470938991E+03 -0.261470747174E+03 -0.261470542093E+03 -0.261470322890E+03
 -0.261470088649E+03 -0.261469838395E+03 -0.261469571085E+03 -0.261469285608E+03 -0.261468980781E+03
 -0.261468655338E+03 -0.261468307933E+03 -0.261467937129E+03 -0.261467541393E+03 -0.261467119091E+03
 -0.261466668480E+03 -0.261466187702E+03 -0.261465674776E+03 -0.261465127588E+03 -0.261464543888E+03
 -0.261463921272E+03 -0.261463257180E+03 -0.261462548881E+03 -0.261461793465E+03 -0.261460987828E+03
 -0.261460128661E+03 -0.261459212436E+03 -0.261458235391E+03 -0.261457193517E+03 -0.261456082538E+03
 -0.261454897898E+03 -0.261453634735E+03 -0.261452287872E+03 -0.261450851784E+03 -0.261449320585E+03
 -0.261447687998E+03 -0.261445947332E+03 -0.261444091453E+03 -0.261442112758E+03 -0.261440003140E+03
 -0.261437753956E+03 -0.261435355994E+03 -0.261432799435E+03 -0.261430073808E+03 -0.261427167953E+03
 -0.261424069974E+03 -0.261420767189E+03 -0.261417246080E+03 -0.261413492237E+03 -0.261409490298E+03
 -0.261405223889E+03 -0.261400675558E+03 -0.261395826699E+03 -0.261390657482E+03 -0.261385146769E+03
 -0.261379272030E+03 -0.261373009250E+03 -0.261366332833E+03 -0.261359215495E+03 -0.261351628160E+03
 -0.261343539836E+03 -0.261334917491E+03 -0.261325725923E+03 -0.261315927614E+03 -0.261305482578E+03
 -0.261294348206E+03 -0.261282479086E+03 -0.261269826828E+03 -0.261256339865E+03 -0.261241963248E+03
 -0.261226638424E+03 -0.261210303007E+03 -0.261192890522E+03 -0.261174330145E+03 -0.261154546422E+03
 -0.261133458963E+03 -0.261110982133E+03 -0.261087024706E+03 -0.261061489508E+03 -0.261034273036E+03
 -0.261005265051E+03 -0.260974348146E+03 -0.260941397291E+03 -0.260906279346E+03 -0.260868852545E+03
 -0.260828965951E+03 -0.260786458876E+03 -0.260741160265E+03 -0.260692888049E+03 -0.260641448451E+03
 -0.260586635261E+03 -0.260528229061E+03 -0.260465996412E+03 -0.260399688987E+03 -0.260329042663E+03
 -0.260253776557E+03 -0.260173592013E+03 -0.260088171534E+03 -0.259997177650E+03 -0.259900251740E+03
 -0.259797012781E+03 -0.259687056042E+03 -0.259569951712E+03 -0.259445243460E+03 -0.259312446931E+03
 -0.259171048174E+03 -0.259020502002E+03 -0.258860230281E+03 -0.258689620156E+03 -0.258508022205E+03
 -0.258314748533E+03 -0.258109070797E+03 -0.257890218178E+03 -0.257657375293E+03 -0.257409680062E+03
 -0.257146221524E+03 -0.256866037631E+03 -0.256568113006E+03 -0.256251376694E+03 -0.255914699913E+03
 -0.255556893824E+03 -0.255176707329E+03 -0.254772824941E+03 -0.254343864719E+03 -0.253888376320E+03
 -0.253404839193E+03 -0.252891660942E+03 -0.252347175903E+03 -0.251769643985E+03 -0.251157249807E+03
 -0.250508102196E+03 -0.249820234107E+03 -0.249091603018E+03 -0.248320091880E+03 -0.247503510696E+03
 -0.246639598817E+03 -0.245726028047E+03 -0.244760406652E+03 -0.243740284396E+03 -0.242663158722E+03
 -0.241526482205E+03 -0.240327671434E+03 -0.239064117478E+03 -0.237733198124E+03 -0.236332292073E+03
 -0.234858795328E+03 -0.233310140011E+03 -0.231683815894E+03 -0.229977394955E+03 -0.228188559325E+03
 -0.226315133034E+03 -0.224355118071E+03 -0.222306735313E+03 -0.220168471072E+03 -0.217939130093E+03
 -0.215617896070E+03 -0.213204400941E+03 -0.210698804387E+03 -0.208101885096E+03 -0.205415145179E+03
 -0.202640928496E+03 -0.199782552152E+03 -0.196844447462E+03 -0.193832301522E+03 -0.190753182277E+03
 -0.187615617628E+03 -0.184429581982E+03 -0.181206322004E+03 -0.177957930042E+03 -0.174696558512E+03
 -0.171433184772E+03 -0.168175927612E+03 -0.164928133629E+03 -0.161686769106E+03 -0.158441783530E+03
 -0.155176386580E+03 -0.151866167360E+03 -0.148473715046E+03 -0.144941647552E+03 -0.141230194269E+03
 -0.137861427375E+03 -0.134517172313E+03 -0.131169128843E+03 -0.127810209416E+03 -0.124472967688E+03
 -0.121197343767E+03 -0.117969998078E+03 -0.114794731479E+03 -0.111674274445E+03 -0.108610805152E+03
 -0.105606008867E+03 -0.102661148904E+03 -0.997771245082E+02 -0.969545353220E+02 -0.941937377385E+02
 -0.914948957238E+02 -0.888580233102E+02 -0.862830174905E+02 -0.837696808811E+02 -0.813177345368E+02
 -0.789268221785E+02 -0.765965078445E+02 -0.743262694337E+02 -0.721154908066E+02 -0.699634550663E+02
 -0.678693414524E+02 -0.658322280243E+02 -0.638511015200E+02 -0.619248752884E+02 -0.600524150677E+02
 -0.582325709302E+02 -0.564642103275E+02 -0.547462517639E+02 -0.530776892864E+02 -0.514576059345E+02
 -0.498851714666E+02 -0.483596232894E+02 -0.468802322584E+02 -0.454462581044E+02 -0.440569017199E+02
 -0.427112627030E+02 -0.414083098793E+02 -0.401468699830E+02 -0.389256359238E+02 -0.377431921535E+02
 -0.365980517150E+02 -0.354886982746E+02 -0.344136268495E+02 -0.333713785432E+02 -0.323605666848E+02
 -0.313798936957E+02 -0.304281594291E+02
 core charge-density (pseudized)
  0.278171468811E-07  0.296556488223E-07  0.316156617639E-07  0.337052166588E-07  0.359328752450E-07
  0.383077651262E-07  0.408396171713E-07  0.435388053855E-07  0.464163894167E-07  0.494841598715E-07
  0.527546866258E-07  0.562413703287E-07  0.599584973100E-07  0.639212981173E-07  0.681460099213E-07
  0.726499430459E-07  0.774515518960E-07  0.825705105716E-07  0.880277934810E-07  0.938457612812E-07
  0.100048252498E-06  0.106660681202E-06  0.113710141141E-06  0.121225516751E-06  0.129237601510E-06
  0.137779224111E-06  0.146885382972E-06  0.156593389639E-06  0.166943021667E-06  0.177976685603E-06
  0.189739590743E-06  0.202279934373E-06  0.215649099250E-06  0.229901864138E-06  0.245096628259E-06
  0.261295650576E-06  0.278565304894E-06  0.296976351816E-06  0.316604228681E-06  0.337529358655E-06
  0.359837480259E-06  0.383619998673E-06  0.408974360255E-06  0.436004451821E-06  0.464821026303E-06
  0.495542156550E-06  0.528293719118E-06  0.563209910030E-06  0.600433794630E-06  0.640117893776E-06
  0.682424808775E-06  0.727527887619E-06  0.775611935259E-06  0.826873970817E-06  0.881524034846E-06
  0.939786049944E-06  0.100189873825E-05  0.106811659955E-05  0.113871095411E-05  0.121397105430E-05
  0.129420526982E-05  0.137974235116E-05  0.147093277665E-05  0.156815018843E-05  0.167179292344E-05
  0.178228564551E-05  0.190008108537E-05  0.202566189560E-05  0.215954262828E-05  0.230227184320E-05
  0.245443435551E-05  0.261665363190E-05  0.278959434512E-05  0.297396509733E-05  0.317052132347E-05
  0.338006838643E-05  0.360346487694E-05  0.384162613135E-05  0.409552798203E-05  0.436621075560E-05
  0.465478353540E-05  0.496242870561E-05  0.529040679578E-05  0.564006164545E-05  0.601282591009E-05
  0.641022693097E-05  0.683389299292E-05  0.728555999560E-05  0.776707856574E-05  0.828042163935E-05
  0.882769254500E-05  0.941113362129E-05  0.100331354038E-04  0.106962464194E-04  0.114031836269E-04
  0.121568435493E-04  0.129603141398E-04  0.138168874335E-04  0.147300730340E-04  0.157036124921E-04
  0.167414946341E-04  0.178479719027E-04  0.190275777788E-04  0.202851453533E-04  0.216258271266E-04
  0.230551161161E-04  0.245788683590E-04  0.262033269009E-04  0.279351473703E-04  0.297814252420E-04
  0.317497249025E-04  0.338481106352E-04  0.360851796526E-04  0.384700973110E-04  0.410126346514E-04
  0.437232084200E-04  0.466129237334E-04  0.496936195602E-04  0.529779172090E-04  0.564792720169E-04
  0.602120284536E-04  0.641914788634E-04  0.684339260876E-04  0.729567502217E-04  0.777784797809E-04
  0.829188675649E-04  0.883989715315E-04  0.942412410095E-04  0.100469608603E-03  0.107109588163E-03
  0.114188379225E-03  0.121734978340E-03  0.129780297751E-03  0.138357291905E-03  0.147501092307E-03
  0.157249151273E-03  0.167641395169E-03  0.178720387751E-03  0.190531504281E-03  0.203123117125E-03
  0.216546793579E-03  0.230857506750E-03  0.246113860321E-03  0.262378328131E-03  0.279717509545E-03
  0.298202401635E-03  0.317908689287E-03  0.338917054415E-03  0.361313505511E-03  0.385189728900E-03
  0.410643463078E-03  0.437778897688E-03  0.466707098708E-03  0.497546461585E-03  0.530423194141E-03
  0.565471831177E-03  0.602835782861E-03  0.642667919085E-03  0.685131192149E-03  0.730399300239E-03
  0.778657394377E-03  0.830102831636E-03  0.884945977632E-03  0.943411061486E-03  0.100573708661E-02
  0.107217880100E-02  0.114300773070E-02  0.121851328076E-02  0.129900390772E-02  0.138480836842E-02
  0.147627704996E-02  0.157378338582E-02  0.167772536393E-02  0.178852713220E-02  0.190664070784E-02
  0.203254779706E-02  0.216676173182E-02  0.230982953134E-02  0.246233409574E-02  0.262489654034E-02
  0.279817867908E-02  0.298288566636E-02  0.317976880695E-02  0.338962854411E-02  0.361331763689E-02
  0.385174453767E-02  0.410587698214E-02  0.437674580418E-02  0.466544898874E-02  0.497315597668E-02
  0.530111223596E-02  0.565064411438E-02  0.602316398966E-02  0.642017573329E-02  0.684328050543E-02
  0.729418289852E-02  0.777469744802E-02  0.828675552942E-02  0.883241266095E-02  0.941385623203E-02
  0.100334136780E-01  0.106935611221E-01  0.113969325051E-01  0.121463292240E-01  0.129447303019E-01
  0.137953031066E-01  0.147014146420E-01  0.156666434285E-01  0.166947919917E-01  0.177898999762E-01
  0.189562578983E-01  0.201984215499E-01  0.215212270621E-01  0.229298066340E-01  0.244296049251E-01
  0.260263961077E-01  0.277263015652E-01  0.295358082163E-01  0.314617874348E-01  0.335115145239E-01
  0.356926886908E-01  0.380134534514E-01  0.404824173783E-01  0.431086750855E-01  0.459018283176E-01
  0.488720069870E-01  0.520298899701E-01  0.553867254402E-01  0.589543504716E-01  0.627452096090E-01
  0.667723720400E-01  0.710495469531E-01  0.755910965979E-01  0.804120464901E-01  0.855280921208E-01
  0.909556014392E-01  0.967116122721E-01  0.102813823732E+00  0.109280580539E+00  0.116130849034E+00
  0.123384183528E+00  0.131060681434E+00  0.139180925472E+00  0.147765911028E+00  0.156836956532E+00
  0.166415594506E+00  0.176523440667E+00  0.187182038260E+00  0.198412674481E+00  0.210236165643E+00
  0.222672607417E+00  0.235741086272E+00  0.249459347951E+00  0.263843418657E+00  0.278907174405E+00
  0.294661853909E+00  0.311115510366E+00  0.328272397531E+00  0.346132285764E+00  0.364689704100E+00
  0.383933105032E+00  0.403843949658E+00  0.424395712050E+00  0.445552803446E+00  0.467269419015E+00
  0.489488312750E+00  0.512139509501E+00  0.535138967437E+00  0.558387209434E+00  0.581767948091E+00
  0.605146736444E+00  0.628369685062E+00  0.651262296129E+00  0.673628476377E+00  0.695249803359E+00
  0.715885133352E+00  0.735270654030E+00  0.753120500453E+00  0.769128068444E+00  0.782968174067E+00
  0.794300220624E+00  0.802772543779E+00  0.808028108940E+00  0.809711730448E+00  0.807478966095E+00
  0.801006809089E+00  0.790006248319E+00  0.774236691204E+00  0.753522135799E+00  0.727768834024E+00
  0.696983999835E+00  0.661294879669E+00  0.620967214059E+00  0.576421778483E+00  0.528247302829E+00
  0.477207643881E+00  0.424240645701E+00  0.370445703867E+00  0.317056703329E+00  0.265396799657E+00
  0.216811557018E+00  0.172577367829E+00  0.133783008680E+00  0.101183807033E+00  0.750303858172E-01
  0.548814653483E-01  0.396720841407E-01  0.283337591574E-01  0.199871516882E-01  0.139214735733E-01
  0.957104934514E-02  0.649260282783E-02  0.434410571116E-02  0.286572169883E-02  0.186312514222E-02
  0.119327141845E-02  0.752545810292E-03  0.467113986358E-03  0.285233885874E-03  0.171258455491E-03
  0.101053652749E-03  0.585692196389E-04  0.333245516409E-04  0.186032201435E-04  0.101831827387E-04
  0.546240813638E-05  0.286955273386E-05  0.147532733812E-05  0.741842141374E-06  0.364567766862E-06
  0.174973828948E-06  0.819539369605E-07  0.374310027952E-07  0.166575039205E-07  0.721681647682E-08
  0.304135607281E-08  0.124563554912E-08  0.495359122344E-09  0.191092896249E-09  0.714396984311E-10
  0.258562688616E-10  0.905040532233E-11  0.306037411044E-11  0.998611990045E-12  0.314071761528E-12
  0.950927252223E-13  0.276828360655E-13  0.773854673340E-14  0.207451431389E-14  0.532581680596E-15
  0.130754031657E-15  0.306542596603E-16  0.685239439041E-17  0.145827396280E-17  0.294978632024E-18
  0.566220074396E-19  0.102965136910E-19
 pseudo wavefunction
  0.170007297134E-11  0.187137073158E-11  0.205992829362E-11  0.226748473890E-11  0.249595437708E-11
  0.274744440184E-11  0.302427432576E-11  0.332899737327E-11  0.366442402935E-11  0.403364796076E-11
  0.444007454923E-11  0.488745229955E-11  0.537990741231E-11  0.592198184022E-11  0.651867517883E-11
  0.717549077823E-11  0.789848650089E-11  0.869433059378E-11  0.957036319015E-11  0.105346640081E-10
  0.115961268706E-10  0.127645417337E-10  0.140506849801E-10  0.154664188109E-10  0.170248006510E-10
  0.187402035792E-10  0.206284488922E-10  0.227069520254E-10  0.249948831768E-10  0.275133441155E-10
  0.302855628046E-10  0.333371076347E-10  0.366961232429E-10  0.403935900932E-10  0.444636102113E-10
  0.489437217102E-10  0.538752450074E-10  0.593036639257E-10  0.652790451939E-10  0.718565002163E-10
  0.790966933687E-10  0.870664015105E-10  0.958391298728E-10  0.105495790002E-09  0.116125446012E-09
  0.127826136031E-09  0.140705776412E-09  0.154883157052E-09  0.170489037002E-09  0.187667350465E-09
  0.206576534309E-09  0.227390989345E-09  0.250302688831E-09  0.275522949060E-09  0.303284378338E-09
  0.333843022346E-09  0.367480725667E-09  0.404507731252E-09  0.445265541810E-09  0.490130069506E-09
  0.539515103020E-09  0.593876123939E-09  0.653714507689E-09  0.719582147746E-09  0.792086545770E-09
  0.871896414623E-09  0.959747845937E-09  0.105645109911E-08  0.116289807437E-08  0.128007053878E-08
  0.140904918112E-08  0.155102357912E-08  0.170730317093E-08  0.187932933212E-08  0.206868866952E-08
  0.227712765447E-08  0.250656873057E-08  0.275912804438E-08  0.303713496263E-08  0.334315355595E-08
  0.368000624723E-08  0.405079984282E-08  0.445895418647E-08  0.490823370047E-08  0.540278210473E-08
  0.594716063413E-08  0.654639010647E-08  0.720599722921E-08  0.793206557179E-08  0.873129167390E-08
  0.961104680699E-08  0.105794449587E-07  0.116454176671E-07  0.128187963951E-07  0.141104032047E-07
  0.155321505666E-07  0.170971512274E-07  0.188198391451E-07  0.207161026111E-07  0.228034307834E-07
  0.251010749850E-07  0.276302262534E-07  0.304142107789E-07  0.334787050343E-07  0.368519725800E-07
  0.405651247277E-07  0.446524074670E-07  0.491515173007E-07  0.541039489014E-07  0.595553777949E-07
  0.655560816000E-07  0.721614037083E-07  0.794322636804E-07  0.874357190641E-07  0.962455838158E-07
  0.105943109027E-06  0.116617732233E-06  0.128367902212E-06  0.141301986879E-06  0.155539272652E-06
  0.171211064487E-06  0.188461896750E-06  0.207450866065E-06  0.228353098440E-06  0.251361364189E-06
  0.276687855551E-06  0.304566143365E-06  0.335253330875E-06  0.369032424485E-06  0.406214943333E-06
  0.447143791740E-06  0.492196420992E-06  0.541788309612E-06  0.596376794181E-06  0.656465286028E-06
  0.722607912617E-06  0.795414626432E-06  0.875556828397E-06  0.963773557669E-06  0.106087830481E-05
  0.116776651109E-05  0.128542382302E-05  0.141493517815E-05  0.155749480571E-05  0.171441723434E-05
  0.188714940810E-05  0.207728402245E-05  0.228657420283E-05  0.251694966102E-05  0.277053447792E-05
  0.304966667644E-05  0.335691976447E-05  0.369512644616E-05  0.406740471957E-05  0.447718660066E-05
  0.492824973758E-05  0.542475220605E-05  0.597127080529E-05  0.657284320659E-05  0.723501434142E-05
  0.796388745505E-05  0.876618029444E-05  0.964928694575E-05  0.106213458890E-04  0.116913148935E-04
  0.128690534411E-04  0.141654134322E-04  0.155923390046E-04  0.171629763805E-04  0.188917947450E-04
  0.207947192625E-04  0.228892774465E-04  0.251947602197E-04  0.277323991344E-04  0.305255613697E-04
  0.335999642838E-04  0.369839114739E-04  0.407085524935E-04  0.448081685871E-04  0.493204870388E-04
  0.542870269866E-04  0.597534798372E-04  0.657701277247E-04  0.723923037986E-04  0.796808984956E-04
  0.877029163620E-04  0.965320884400E-04  0.106249545722E-03  0.116944559715E-03  0.128715356757E-03
  0.141670013344E-03  0.155927440485E-03  0.171618465813E-03  0.188887023086E-03  0.207891459595E-03
  0.228805973033E-03  0.251822190468E-03  0.277150903292E-03  0.305023973302E-03  0.335696426539E-03
  0.369448753051E-03  0.406589432467E-03  0.447457707101E-03  0.492426626346E-03  0.541906388281E-03
  0.596348006803E-03  0.656247335157E-03  0.722149479516E-03  0.794653639288E-03  0.874418414033E-03
  0.962167620407E-03  0.105869666626E-02  0.116487953311E-02  0.128167642239E-02  0.141014212568E-02
  0.155143518377E-02  0.170682790492E-02  0.187771731775E-02  0.206563714044E-02  0.227227085363E-02
  0.249946597087E-02  0.274924960692E-02  0.302384545103E-02  0.332569225886E-02  0.365746398387E-02
  0.402209167554E-02  0.442278727820E-02  0.486306947096E-02  0.534679169413E-02  0.587817251293E-02
  0.646182847258E-02  0.710280960152E-02  0.780663771920E-02  0.857934770377E-02  0.942753186897E-02
  0.103583875915E-01  0.113797683167E-01  0.125002380507E-01  0.137291294234E-01  0.150766053712E-01
  0.165537244464E-01  0.181725097054E-01  0.199460210604E-01  0.218884308946E-01  0.240151026415E-01
  0.263426719023E-01  0.288891295321E-01  0.316739059456E-01  0.347179556881E-01  0.380438410704E-01
  0.416758133818E-01  0.456398898610E-01  0.499639242217E-01  0.546776680845E-01  0.598128201680E-01
  0.654030595119E-01  0.714840583677E-01  0.780934696678E-01  0.852708831866E-01  0.930577436322E-01
  0.101497222956E+00  0.110634038148E+00  0.120514204720E+00  0.131184714953E+00  0.142693128899E+00
  0.155087065003E+00  0.168413576256E+00  0.182718396900E+00  0.198045044134E+00  0.214433758998E+00
  0.231920270856E+00  0.250534370803E+00  0.270298281079E+00  0.291224810426E+00  0.313315289593E+00
  0.336557287083E+00  0.360922113259E+00  0.386362131244E+00  0.412807906271E+00  0.440165241445E+00
  0.468312167679E+00  0.497095979129E+00  0.526330432728E+00  0.555793261422E+00  0.585224184719E+00
  0.614323636436E+00  0.642752466214E+00  0.670132906272E+00  0.696051124365E+00  0.720061703560E+00
  0.741694393114E+00  0.760463455000E+00  0.775879878499E+00  0.787466640314E+00  0.794777038634E+00
  0.797415915015E+00  0.795063287541E+00  0.787499545478E+00  0.774630898251E+00  0.756513238569E+00
  0.733371993625E+00  0.705614941862E+00  0.673834433794E+00  0.638795072887E+00  0.601402820543E+00
  0.562651857405E+00  0.523546560798E+00  0.484997858632E+00  0.447696192498E+00  0.411973848382E+00
  0.377889538463E+00  0.345494587836E+00  0.314827384633E+00  0.285910551588E+00  0.258752024050E+00
  0.233346147814E+00  0.209674794602E+00  0.187708493232E+00  0.167407574115E+00  0.148723323710E+00
  0.131599143966E+00  0.115971709966E+00  0.101772117155E+00  0.889270079583E-01  0.773596664820E-01
  0.669910696099E-01  0.577408831398E-01  0.495283926334E-01  0.422733602372E-01  0.358968006728E-01
  0.303216716825E-01  0.254734762615E-01  0.212807758796E-01  0.176756154857E-01  0.145938623534E-01
  0.119754618451E-01  0.976461383454E-02  0.790987420841E-02  0.636418624970E-02  0.508484740054E-02
  0.403341742702E-02  0.317557473820E-02  0.248092829631E-02  0.192279314661E-02  0.147793797268E-02
  0.112631315565E-02  0.850767537764E-03  0.636761474349E-03  0.472082869754E-03  0.346571833046E-03
  0.251858467864E-03  0.181117219808E-03  0.128840204526E-03  0.906310567775E-04  0.630200768726E-04
  0.433007957658E-04  0.293875224808E-04
 ae wavefunction
  0.646287626635E-07  0.703872277834E-07  0.766307381358E-07  0.834024446242E-07  0.907491709814E-07
  0.987217413561E-07  0.107375336177E-06  0.116769878816E-06  0.126970455815E-06  0.138047773681E-06
  0.150078655528E-06  0.163146581119E-06  0.177342274197E-06  0.192764341325E-06  0.209519966832E-06
  0.227725668885E-06  0.247508122129E-06  0.269005052863E-06  0.292366213210E-06  0.317754441352E-06
  0.345346815533E-06  0.375335910174E-06  0.407931163304E-06  0.443360365178E-06  0.481871279045E-06
  0.523733405786E-06  0.569239905416E-06  0.618709689450E-06  0.672489699508E-06  0.730957388837E-06
  0.794523425012E-06  0.863634633669E-06  0.938777204932E-06  0.102048018620E-05  0.110931928701E-05
  0.120592102415E-05  0.131096723755E-05  0.142520001053E-05  0.154942703070E-05  0.168452743137E-05
  0.183145815678E-05  0.199126089839E-05  0.216506965387E-05  0.235411896504E-05  0.255975289595E-05
  0.278343481819E-05  0.302675807621E-05  0.329145761234E-05  0.357942263813E-05  0.389271044676E-05
  0.423356146959E-05  0.460441568934E-05  0.500793053265E-05  0.544700037555E-05  0.592477780786E-05
  0.644469681528E-05  0.701049805235E-05  0.762625639533E-05  0.829641098052E-05  0.902579795232E-05
  0.981968616540E-05  0.106838161071E-04  0.116244423302E-04  0.126483797110E-04  0.137630538786E-04
  0.149765561870E-04  0.162977036403E-04  0.177361042134E-04  0.193022280509E-04  0.210074850706E-04
  0.228643095420E-04  0.248862522620E-04  0.270880810038E-04  0.294858899728E-04  0.320972190690E-04
  0.349411838220E-04  0.380386169414E-04  0.414122225063E-04  0.450867439023E-04  0.490891467120E-04
  0.534488178663E-04  0.581977824715E-04  0.633709398502E-04  0.690063204580E-04  0.751453654789E-04
  0.818332310496E-04  0.891191192218E-04  0.970566379465E-04  0.105704192544E-03  0.115125411324E-03
  0.125389608239E-03  0.136572285655E-03  0.148755680612E-03  0.162029358157E-03  0.176490855639E-03
  0.192246382147E-03  0.209411577566E-03  0.228112336097E-03  0.248485699386E-03  0.270680824835E-03
  0.294860035028E-03  0.321199954628E-03  0.349892741544E-03  0.381147419630E-03  0.415191320632E-03
  0.452271643635E-03  0.492657140761E-03  0.536639938397E-03  0.584537503823E-03  0.636694767640E-03
  0.693486413005E-03  0.755319343265E-03  0.822635340156E-03  0.895913925365E-03  0.975675438798E-03
  0.106248434749E-02  0.115695279962E-02  0.125974443869E-02  0.137157849320E-02  0.149323415787E-02
  0.162555528245E-02  0.176945538475E-02  0.192592300434E-02  0.209602741370E-02  0.228092470315E-02
  0.248186425575E-02  0.270019562783E-02  0.293737584976E-02  0.319497716080E-02  0.347469519027E-02
  0.377835759540E-02  0.410793316413E-02  0.446554138839E-02  0.485346250989E-02  0.527414803687E-02
  0.573023172531E-02  0.622454101303E-02  0.676010888868E-02  0.734018617054E-02  0.796825416167E-02
  0.864803763905E-02  0.938351812307E-02  0.101789473625E-01  0.110388609562E-01  0.119680920183E-01
  0.129717847765E-01  0.140554079758E-01  0.152247679383E-01  0.164860211093E-01  0.178456858955E-01
  0.193106535737E-01  0.208881980221E-01  0.225859839951E-01  0.244120736293E-01  0.263749308346E-01
  0.284834231826E-01  0.307468208679E-01  0.331747922662E-01  0.357773955690E-01  0.385650659172E-01
  0.415485974012E-01  0.447391192400E-01  0.481480654012E-01  0.517871368785E-01  0.556682558227E-01
  0.598035107005E-01  0.642050916630E-01  0.688852153076E-01  0.738560380273E-01  0.791295571440E-01
  0.847174990255E-01  0.906311933887E-01  0.968814330048E-01  0.103478318045E+00  0.110431084356E+00
  0.117747915012E+00  0.125435734613E+00  0.133499985921E+00  0.141944388619E+00  0.150770680204E+00
  0.159978339303E+00  0.169564291981E+00  0.179522602022E+00  0.189844146514E+00  0.200516278562E+00
  0.211522479441E+00  0.222842003058E+00  0.234449516180E+00  0.246314738531E+00  0.258402087537E+00
  0.270670333177E+00  0.283072269147E+00  0.295554407220E+00  0.308056702437E+00  0.320512317407E+00
  0.332847434643E+00  0.344981126374E+00  0.356825291673E+00  0.368284670862E+00  0.379256947037E+00
  0.389632943969E+00  0.399296928858E+00  0.408127027517E+00  0.415995759265E+00  0.422770699600E+00
  0.428315281002E+00  0.432489745403E+00  0.435152264692E+00  0.436160246152E+00  0.435371835927E+00
  0.432647623964E+00  0.427852539631E+00  0.420857914420E+00  0.411543683060E+00  0.399800697791E+00
  0.385533134240E+00  0.368660965932E+00  0.349122478486E+00  0.326876788171E+00  0.301906325055E+00
  0.274219237957E+00  0.243851675506E+00  0.210869894010E+00  0.175372138845E+00  0.137490242330E+00
  0.973908781315E-01  0.552764110905E-01  0.113852822116E-01 -0.340081280797E-01 -0.805942094287E-01
 -0.128029446484E+00 -0.175938390499E+00 -0.223916291639E+00 -0.271532377658E+00 -0.318333719658E+00
 -0.363849569973E+00 -0.407596022315E+00 -0.449080888343E+00 -0.487808857438E+00 -0.523287263388E+00
 -0.555032860508E+00 -0.582579570409E+00 -0.605486482449E+00 -0.623345318440E+00 -0.635787128404E+00
 -0.642488377960E+00 -0.643176555883E+00 -0.637635244496E+00 -0.625708474406E+00 -0.607304179617E+00
 -0.582396641143E+00 -0.551027892640E+00 -0.513308119592E+00 -0.469415108016E+00 -0.419592800974E+00
 -0.364149014112E+00 -0.303452351822E+00 -0.237928358430E+00 -0.168054935789E+00 -0.943570620438E-01
 -0.174008562742E-01  0.622129508529E-01  0.143856060721E+00  0.226880063675E+00  0.310624179904E+00
  0.394423114590E+00  0.477614802707E+00  0.559547769878E+00  0.639587858431E+00  0.717124230903E+00
  0.791574858634E+00  0.862391955357E+00  0.929067778527E+00  0.991140818707E+00  0.104820196273E+01
  0.109989999739E+01  0.114594597761E+01  0.118611623705E+01  0.122025400745E+01  0.124826968560E+01
  0.127013980925E+01  0.128590481752E+01  0.129566570602E+01  0.129957971891E+01  0.129785525124E+01
  0.129074615101E+01  0.127854561099E+01  0.126157983369E+01  0.124020163464E+01  0.121478413629E+01
  0.118571467009E+01  0.115338899660E+01  0.111820592632E+01  0.108056240075E+01  0.104084907932E+01
  0.999446461699E+00  0.956721552732E+00  0.913025070218E+00  0.868689180048E+00  0.824025731744E+00
  0.779324961910E+00  0.734854622247E+00  0.690859487354E+00  0.647561191227E+00  0.605158345031E+00
  0.563826884993E+00  0.523720608097E+00  0.484971853590E+00  0.447692298787E+00  0.411973848382E+00
  0.377889538463E+00  0.345494587836E+00  0.314827384633E+00  0.285910551588E+00  0.258752024050E+00
  0.233346147814E+00  0.209674794602E+00  0.187708493232E+00  0.167407574115E+00  0.148723323710E+00
  0.131599143966E+00  0.115971709966E+00  0.101772117155E+00  0.889270079583E-01  0.773596664820E-01
  0.669910696099E-01  0.577408831398E-01  0.495283926334E-01  0.422733602372E-01  0.358968006728E-01
  0.303216716825E-01  0.254734762615E-01  0.212807758796E-01  0.176756154857E-01  0.145938623534E-01
  0.119754618451E-01  0.976461383454E-02  0.790987420841E-02  0.636418624970E-02  0.508484740054E-02
  0.403341742702E-02  0.317557473820E-02  0.248092829631E-02  0.192279314661E-02  0.147793797268E-02
  0.112631315565E-02  0.850767537764E-03  0.636761474349E-03  0.472082869754E-03  0.346571833046E-03
  0.251858467864E-03  0.181117219808E-03  0.128840204526E-03  0.906310567775E-04  0.630200768726E-04
  0.433007957658E-04  0.293875224808E-04
 pseudo wavefunction
  0.158427185865E-11  0.174390160728E-11  0.191961549979E-11  0.211303415946E-11  0.232594150200E-11
  0.256030118882E-11  0.281827473801E-11  0.310224146018E-11  0.341482040304E-11  0.375889450710E-11
  0.413763719523E-11  0.455454164141E-11  0.501345298853E-11  0.551860381247E-11  0.607465315947E-11
  0.668672951688E-11  0.736047811358E-11  0.810211298642E-11  0.891847429271E-11  0.981709139756E-11
  0.108062523178E-10  0.118950801631E-10  0.130936172787E-10  0.144129178676E-10  0.158651499432E-10
  0.174637075569E-10  0.192233343317E-10  0.211602594442E-10  0.232923473073E-10  0.256392623354E-10
  0.282226503103E-10  0.310663380221E-10  0.341965530259E-10  0.376421655397E-10  0.414349547174E-10
  0.456099017498E-10  0.502055124989E-10  0.552641726405E-10  0.608325385901E-10  0.669619678186E-10
  0.737089925261E-10  0.811358410423E-10  0.893110117631E-10  0.983099049158E-10  0.108215517981E-09
  0.119119211185E-09  0.131121550120E-09  0.144333233268E-09  0.158876112982E-09  0.174884319336E-09
  0.192505497217E-09  0.211902168064E-09  0.233253228813E-09  0.256755601875E-09  0.282626051363E-09
  0.311103182324E-09  0.342449641401E-09  0.376954539249E-09  0.414936117007E-09  0.456744681466E-09
  0.502765835957E-09  0.553424036800E-09  0.609186508081E-09  0.670567550883E-09  0.738133286713E-09
  0.812506878862E-09  0.894374279871E-09  0.984490558096E-09  0.108368686173E-08  0.119287808452E-08
  0.131307130386E-08  0.144537506908E-08  0.159100962565E-08  0.175131816951E-08  0.192777923539E-08
  0.212202033338E-08  0.233583295947E-08  0.257118911847E-08  0.283025951190E-08  0.311543355829E-08
  0.342934143078E-08  0.377487831520E-08  0.415523111224E-08  0.457390783018E-08  0.503476993912E-08
  0.554206798513E-08  0.610048079283E-08  0.671515861786E-08  0.739177064739E-08  0.813655728650E-08
  0.895638771290E-08  0.985882323065E-08  0.108521870072E-07  0.119456408368E-07  0.131492696387E-07
  0.144741744683E-07  0.159325749008E-07  0.175379217298E-07  0.193050210209E-07  0.212501706653E-07
  0.233913106907E-07  0.257481887177E-07  0.283425420862E-07  0.311982983321E-07  0.343417958628E-07
  0.378020268667E-07  0.416109046963E-07  0.458035581917E-07  0.504186556573E-07  0.554987614803E-07
  0.610907286792E-07  0.672461310021E-07  0.740217385591E-07  0.814800413750E-07  0.896898256900E-07
  0.987268083221E-07  0.108674334941E-06  0.119624148689E-06  0.131677236246E-06  0.144944759120E-06
  0.159549078771E-06  0.175624885011E-06  0.193320438073E-06  0.212798935821E-06  0.234240018688E-06
  0.257841426224E-06  0.283820820522E-06  0.312417793337E-06  0.343896075386E-06  0.378545968212E-06
  0.416687021009E-06  0.458670977093E-06  0.504885017170E-06  0.555755329291E-06  0.611751038394E-06
  0.673388531642E-06  0.741236219419E-06  0.815919775843E-06  0.898127907088E-06  0.988618700649E-06
  0.108822661405E-05  0.119787016734E-05  0.131856041032E-05  0.145141024230E-05  0.159764467044E-05
  0.175861210098E-05  0.193579676729E-05  0.213083240935E-05  0.234551733028E-05  0.258183096881E-05
  0.284195213990E-05  0.312827911159E-05  0.344345170258E-05  0.379037560389E-05  0.417224914825E-05
  0.459259277335E-05  0.505528144973E-05  0.556458037144E-05  0.612518423727E-05  0.674226048353E-05
  0.742149686529E-05  0.816915382299E-05  0.899212211493E-05  0.989798624462E-05  0.108950942645E-04
  0.119926345963E-04  0.132007205716E-04  0.145304834678E-04  0.159941748908E-04  0.176052794418E-04
  0.193786386981E-04  0.213305876432E-04  0.234791047910E-04  0.258439773754E-04  0.284469831139E-04
  0.313120902015E-04  0.344656773577E-04  0.379367759308E-04  0.417573362608E-04  0.459625207231E-04
  0.505910261127E-04  0.556854382943E-04  0.612926223306E-04  0.674641516193E-04  0.742567799188E-04
  0.817329605210E-04  0.899614172514E-04  0.990177724350E-04  0.108985237469E-03  0.119955372194E-03
  0.132028919864E-03  0.145316725171E-03  0.159940743504E-03  0.176035150426E-03  0.193747561199E-03
  0.213240371156E-03  0.234692228739E-03  0.258299654158E-03  0.284278817861E-03  0.312867494351E-03
  0.344327208353E-03  0.378945591933E-03  0.417038972908E-03  0.458955216788E-03  0.505076846536E-03
  0.555824466669E-03  0.611660520648E-03  0.673093413117E-03  0.740682031390E-03  0.815040703646E-03
  0.896844634598E-03  0.986835862938E-03  0.108582978870E-02  0.119472232273E-02  0.131449771496E-02
  0.144623712254E-02  0.159112798431E-02  0.175047427289E-02  0.192570770150E-02  0.211839996835E-02
  0.233027612757E-02  0.256322918189E-02  0.281933599903E-02  0.310087466017E-02  0.341034335574E-02
  0.375048095071E-02  0.412428934790E-02  0.453505778441E-02  0.498638920214E-02  0.548222883883E-02
  0.602689519026E-02  0.662511349764E-02  0.728205191574E-02  0.800336051707E-02  0.879521328420E-02
  0.966435323627E-02  0.106181408257E-01  0.116646057261E-01  0.128125021111E-01  0.140713674970E-01
  0.154515851846E-01  0.169644502902E-01  0.186222392971E-01  0.204382829867E-01  0.224270425194E-01
  0.246041883300E-01  0.269866813685E-01  0.295928560669E-01  0.324425042247E-01  0.355569587899E-01
  0.389591762559E-01  0.426738160987E-01  0.467273153308E-01  0.511479558530E-01  0.559659218256E-01
  0.612133437663E-01  0.669243254907E-01  0.731349493544E-01  0.798832545257E-01  0.872091822048E-01
  0.951544808281E-01  0.103762563343E+00  0.113078307633E+00  0.123147790109E+00  0.134017941435E+00
  0.145736112253E+00  0.158349535827E+00  0.171904673575E+00  0.186446428828E+00  0.202017213715E+00
  0.218655854106E+00  0.236396318135E+00  0.255266255164E+00  0.275285334339E+00  0.296463375459E+00
  0.318798269902E+00  0.342273696300E+00  0.366856644746E+00  0.392494775080E+00  0.419113649490E+00
  0.446613897712E+00  0.474868394845E+00  0.503719557296E+00  0.532976891712E+00  0.562414964651E+00
  0.591771996424E+00  0.620749319816E+00  0.649011981350E+00  0.676190796340E+00  0.701886195398E+00
  0.725674213778E+00  0.747114969125E+00  0.765763939410E+00  0.781186280722E+00  0.792974302719E+00
  0.800768035287E+00  0.804278560834E+00  0.803313441763E+00  0.797803134926E+00  0.787826754232E+00
  0.773634930394E+00  0.755666850840E+00  0.734557893658E+00  0.711133677093E+00  0.686385945986E+00
  0.661425664218E+00  0.637409173423E+00  0.615434542458E+00  0.596407514668E+00  0.580888710462E+00
  0.569208852398E+00  0.561777890298E+00  0.559064361341E+00  0.000000000000E+00  0.000000000000E+00
  0.000000000000E+00  0.000000000000E+00  0.000000000000E+00  0.000000000000E+00  0.000000000000E+00
  0.000000000000E+00  0.000000000000E+00  0.000000000000E+00  0.000000000000E+00  0.000000000000E+00
  0.000000000000E+00  0.000000000000E+00  0.000000000000E+00  0.000000000000E+00  0.000000000000E+00
  0.000000000000E+00  0.000000000000E+00  0.000000000000E+00  0.000000000000E+00  0.000000000000E+00
  0.000000000000E+00  0.000000000000E+00  0.000000000000E+00  0.000000000000E+00  0.000000000000E+00
  0.000000000000E+00  0.000000000000E+00  0.000000000000E+00  0.000000000000E+00  0.000000000000E+00
  0.000000000000E+00  0.000000000000E+00  0.000000000000E+00  0.000000000000E+00  0.000000000000E+00
  0.000000000000E+00  0.000000000000E+00  0.000000000000E+00  0.000000000000E+00  0.000000000000E+00
  0.000000000000E+00  0.000000000000E+00
 ae wavefunction
  0.614415964807E-07  0.669160827539E-07  0.728516942569E-07  0.792894539051E-07  0.862738763174E-07
  0.938532792482E-07  0.102080121902E-06  0.111011372528E-06  0.120708907923E-06  0.131239947702E-06
  0.142677526443E-06  0.155101007104E-06  0.168596639385E-06  0.183258167061E-06  0.199187488666E-06
  0.216495376269E-06  0.235302257551E-06  0.255739066836E-06  0.277948171216E-06  0.302084378504E-06
  0.328316034325E-06  0.356826216287E-06  0.387814033975E-06  0.421496044162E-06  0.458107791644E-06
  0.497905486858E-06  0.541167832624E-06  0.588198013323E-06  0.639325861138E-06  0.694910215197E-06
  0.755341490990E-06  0.821044478930E-06  0.892481392658E-06  0.970155189582E-06  0.105461318810E-05
  0.114645100831E-05  0.124631686516E-05  0.135491624612E-05  0.147301700766E-05  0.160145492859E-05
  0.174113976141E-05  0.189306182651E-05  0.205829919844E-05  0.223802553754E-05  0.243351862528E-05
  0.264616966705E-05  0.287749343144E-05  0.312913930202E-05  0.340290332383E-05  0.370074133456E-05
  0.402478327860E-05  0.437734881086E-05  0.476096430687E-05  0.517838140645E-05  0.563259722934E-05
  0.612687641412E-05  0.666477514487E-05  0.725016734522E-05  0.788727323535E-05  0.858069046511E-05
  0.933542805549E-05  0.101569434017E-04  0.110511826129E-04  0.120246244901E-04  0.130843284671E-04
  0.142379868729E-04  0.154939819011E-04  0.168614477094E-04  0.183503381073E-04  0.199715003327E-04
  0.217367554593E-04  0.236589860270E-04  0.257522315368E-04  0.280317925090E-04  0.305143438642E-04
  0.332180584508E-04  0.361627416149E-04  0.393699777856E-04  0.428632901304E-04  0.466683144271E-04
  0.508129883931E-04  0.553277578204E-04  0.602458009762E-04  0.656032728496E-04  0.714395709595E-04
  0.777976245754E-04  0.847242093594E-04  0.922702895975E-04  0.100491390365E-03  0.109448002157E-03
  0.119206020727E-03  0.129837225064E-03  0.141419796714E-03  0.154038883853E-03  0.167787213812E-03
  0.182765758019E-03  0.199084453628E-03  0.216862986423E-03  0.236231639908E-03  0.257332215865E-03
  0.280319032029E-03  0.305360002923E-03  0.332637810311E-03  0.362351170177E-03  0.394716203567E-03
  0.429967919136E-03  0.468361815715E-03  0.510175613738E-03  0.555711124883E-03  0.605296269846E-03
  0.659287254687E-03  0.718070916776E-03  0.782067251920E-03  0.851732134817E-03  0.927560245527E-03
  0.101008821522E-02  0.109989800496E-02  0.119762053175E-02  0.130393955664E-02  0.141959584983E-02
  0.154539164831E-02  0.168219542171E-02  0.183094696206E-02  0.199266281324E-02  0.216844205598E-02
  0.235947246347E-02  0.256703704263E-02  0.279252097495E-02  0.303741896998E-02  0.330334304311E-02
  0.359203072759E-02  0.390535372858E-02  0.424532702444E-02  0.461411841730E-02  0.501405853135E-02
  0.544765125279E-02  0.591758460027E-02  0.642674200889E-02  0.697821400376E-02  0.757531023151E-02
  0.822157180927E-02  0.892078394026E-02  0.967698873436E-02  0.104944981587E-01  0.113779070297E-01
  0.123321059415E-01  0.133622940096E-01  0.144739912881E-01  0.156730506980E-01  0.169656692828E-01
  0.183583985809E-01  0.198581538793E-01  0.214722220814E-01  0.232082678957E-01  0.250743380113E-01
  0.270788628975E-01  0.292306558187E-01  0.315389086155E-01  0.340131837563E-01  0.366634021091E-01
  0.394998258356E-01  0.425330357498E-01  0.457739024434E-01  0.492335504300E-01  0.529233145467E-01
  0.568546878260E-01  0.610392600613E-01  0.654886462905E-01  0.702144044300E-01  0.752279412974E-01
  0.805404062598E-01  0.861625717526E-01  0.921046999200E-01  0.983763946567E-01  0.104986438371E+00
  0.111942612856E+00  0.119251503752E+00  0.126918288228E+00  0.134946505659E+00  0.143337811338E+00
  0.152091713453E+00  0.161205293925E+00  0.170672913989E+00  0.180485905815E+00  0.190632251892E+00
  0.201096254375E+00  0.211858197107E+00  0.222894003638E+00  0.234174895097E+00  0.245667052493E+00
  0.257331288615E+00  0.269122735433E+00  0.280990553556E+00  0.292877670976E+00  0.304720558998E+00
  0.316449053813E+00  0.327986232705E+00  0.339248354230E+00  0.350144871846E+00  0.360578530332E+00
  0.370445553820E+00  0.379635933452E+00  0.388033821901E+00  0.395518041648E+00  0.401962714693E+00
  0.407238023518E+00  0.411211116192E+00  0.413747171152E+00  0.414710637726E+00  0.413966664851E+00
  0.411382721264E+00  0.406830396871E+00  0.400187362911E+00  0.391339463599E+00  0.380182915280E+00
  0.366626592593E+00  0.350594379798E+00  0.332027559779E+00  0.310887207130E+00  0.287156547536E+00
  0.260843242798E+00  0.231981558068E+00  0.200634364455E+00  0.166894926396E+00  0.130888419568E+00
  0.927731224253E-01  0.527412232862E-01  0.110191857421E-01 -0.321323816466E-01 -0.764193998141E-01
 -0.121515578340E+00 -0.167064288919E+00 -0.212681066442E+00 -0.257956724005E+00 -0.302461025454E+00
 -0.345746806131E+00 -0.387354399293E+00 -0.426816267438E+00 -0.463661901905E+00 -0.497423298290E+00
 -0.527641390367E+00 -0.553873405875E+00 -0.575700462805E+00 -0.592734655723E+00 -0.604625410285E+00
 -0.611065258567E+00 -0.611795157435E+00 -0.606609295607E+00 -0.595359219760E+00 -0.577957104888E+00
 -0.554378062544E+00 -0.524661461846E+00 -0.488911293345E+00 -0.447295629054E+00 -0.400045234299E+00
 -0.347451380250E+00 -0.289862896976E+00 -0.227682499954E+00 -0.161362420127E+00 -0.913993707935E-01
 -0.183288940176E-01  0.572808561301E-01  0.134835817636E+00  0.213723115868E+00  0.293318427302E+00
  0.372993450534E+00  0.452123271317E+00  0.530093361787E+00  0.606305975292E+00  0.680185852767E+00
  0.751185437005E+00  0.818790031446E+00  0.882523306090E+00  0.941953172198E+00  0.996697634875E+00
  0.104643002407E+01  0.109088315300E+01  0.112985219398E+01  0.116319624047E+01  0.119083859351E+01
  0.121276583205E+01  0.122902573985E+01  0.123972419532E+01  0.124502116066E+01  0.124512593646E+01
  0.124029186403E+01  0.123081065793E+01  0.121700654608E+01  0.119923037749E+01  0.117785384651E+01
  0.115326395001E+01  0.112585778762E+01  0.109603779072E+01  0.106420744476E+01  0.103076755872E+01
  0.996113122086E+00  0.960630770860E+00  0.924696881575E+00  0.888676300602E+00  0.852921710543E+00
  0.817773636270E+00  0.783561090183E+00  0.750602864342E+00  0.719209482149E+00  0.689685840249E+00
  0.662334584683E+00  0.637460296279E+00  0.615374587608E+00  0.596402259555E+00  0.580888710462E+00
  0.569208852398E+00  0.561777890298E+00  0.559064361341E+00  0.000000000000E+00  0.000000000000E+00
  0.000000000000E+00  0.000000000000E+00  0.000000000000E+00  0.000000000000E+00  0.000000000000E+00
  0.000000000000E+00  0.000000000000E+00  0.000000000000E+00  0.000000000000E+00  0.000000000000E+00
  0.000000000000E+00  0.000000000000E+00  0.000000000000E+00  0.000000000000E+00  0.000000000000E+00
  0.000000000000E+00  0.000000000000E+00  0.000000000000E+00  0.000000000000E+00  0.000000000000E+00
  0.000000000000E+00  0.000000000000E+00  0.000000000000E+00  0.000000000000E+00  0.000000000000E+00
  0.000000000000E+00  0.000000000000E+00  0.000000000000E+00  0.000000000000E+00  0.000000000000E+00
  0.000000000000E+00  0.000000000000E+00  0.000000000000E+00  0.000000000000E+00  0.000000000000E+00
  0.000000000000E+00  0.000000000000E+00  0.000000000000E+00  0.000000000000E+00  0.000000000000E+00
  0.000000000000E+00  0.000000000000E+00
 pseudo wavefunction
  0.123718729663E-03  0.127741754087E-03  0.131895597227E-03  0.136184512981E-03  0.140612893572E-03
  0.145185274050E-03  0.149906336930E-03  0.154780916994E-03  0.159814006236E-03  0.165010758980E-03
  0.170376497154E-03  0.175916715741E-03  0.181637088409E-03  0.187543473319E-03  0.193641919124E-03
  0.199938671165E-03  0.206440177864E-03  0.213153097331E-03  0.220084304182E-03  0.227240896576E-03
  0.234630203487E-03  0.242259792210E-03  0.250137476108E-03  0.258271322616E-03  0.266669661501E-03
  0.275341093394E-03  0.284294498594E-03  0.293539046169E-03  0.303084203340E-03  0.312939745177E-03
  0.323115764613E-03  0.333622682776E-03  0.344471259662E-03  0.355672605158E-03  0.367238190413E-03
  0.379179859590E-03  0.391509841996E-03  0.404240764599E-03  0.417385664970E-03  0.430958004624E-03
  0.444971682811E-03  0.459441050751E-03  0.474380926328E-03  0.489806609264E-03  0.505733896790E-03
  0.522179099823E-03  0.539159059668E-03  0.556691165265E-03  0.574793370999E-03  0.593484215084E-03
  0.612782838548E-03  0.632709004836E-03  0.653283120049E-03  0.674526253838E-03  0.696460160988E-03
  0.719107303687E-03  0.742490874539E-03  0.766634820304E-03  0.791563866432E-03  0.817303542374E-03
  0.843880207732E-03  0.871321079250E-03  0.899654258686E-03  0.928908761591E-03  0.959114547018E-03
  0.990302548211E-03  0.102250470427E-02  0.105575399287E-02  0.109008446403E-02  0.112553127496E-02
  0.116213072610E-02  0.119992029826E-02  0.123893869104E-02  0.127922586240E-02  0.132082306965E-02
  0.136377291163E-02  0.140811937238E-02  0.145390786617E-02  0.150118528398E-02  0.155000004156E-02
  0.160040212895E-02  0.165244316174E-02  0.170617643385E-02  0.176165697216E-02  0.181894159283E-02
  0.187808895948E-02  0.193915964326E-02  0.200221618486E-02  0.206732315858E-02  0.213454723841E-02
  0.220395726634E-02  0.227562432281E-02  0.234962179949E-02  0.242602547448E-02  0.250491358981E-02
  0.258636693163E-02  0.267046891285E-02  0.275730565861E-02  0.284696609439E-02  0.293954203712E-02
  0.303512828909E-02  0.313382273510E-02  0.323572644258E-02  0.334094376512E-02  0.344958244926E-02
  0.356175374478E-02  0.367757251860E-02  0.379715737233E-02  0.392063076368E-02  0.404811913179E-02
  0.417975302666E-02  0.431566724272E-02  0.445600095680E-02  0.460089787057E-02  0.475050635755E-02
  0.490497961496E-02  0.506447582049E-02  0.522915829408E-02  0.539919566505E-02  0.557476204460E-02
  0.575603720390E-02  0.594320675799E-02  0.613646235559E-02  0.633600187512E-02  0.654202962705E-02
  0.675475656279E-02  0.697440049037E-02  0.720118629708E-02  0.743534617938E-02  0.767711988018E-02
  0.792675493383E-02  0.818450691904E-02  0.845063971997E-02  0.872542579577E-02  0.900914645885E-02
  0.930209216206E-02  0.960456279526E-02  0.991686799135E-02  0.102393274422E-01  0.105722712250E-01
  0.109160401386E-01  0.112709860510E-01  0.116374722586E-01  0.120158738554E-01  0.124065781162E-01
  0.128099848901E-01  0.132265070081E-01  0.136565707027E-01  0.141006160420E-01  0.145590973763E-01
  0.150324838009E-01  0.155212596313E-01  0.160259248957E-01  0.165469958419E-01  0.170850054610E-01
  0.176405040267E-01  0.182140596534E-01  0.188062588701E-01  0.194177072139E-01  0.200490298410E-01
  0.207008721583E-01  0.213739004730E-01  0.220688026645E-01  0.227862888757E-01  0.235270922268E-01
  0.242919695504E-01  0.250817021506E-01  0.258970965838E-01  0.267389854654E-01  0.276082282992E-01
  0.285057123339E-01  0.294323534440E-01  0.303890970384E-01  0.313769189958E-01  0.323968266281E-01
  0.334498596721E-01  0.345370913106E-01  0.356596292238E-01  0.368186166704E-01  0.380152336003E-01
  0.392506977991E-01  0.405262660643E-01  0.418432354152E-01  0.432029443357E-01  0.446067740507E-01
  0.460561498376E-01  0.475525423717E-01  0.490974691075E-01  0.506924956942E-01  0.523392374279E-01
  0.540393607385E-01  0.557945847128E-01  0.576066826523E-01  0.594774836674E-01  0.614088743050E-01
  0.634028002117E-01  0.654612678293E-01  0.675863461237E-01  0.697801683448E-01  0.720449338160E-01
  0.743829097519E-01  0.767964331025E-01  0.792879124203E-01  0.818598297480E-01  0.845147425244E-01
  0.872552855027E-01  0.900841726791E-01  0.930041992244E-01  0.960182434153E-01  0.991292685570E-01
  0.102340324891E+00  0.105654551478E+00  0.109075178053E+00  0.112605526831E+00  0.116249014264E+00
  0.120009152725E+00  0.123889552119E+00  0.127893921385E+00  0.132026069896E+00  0.136289908708E+00
  0.140689451667E+00  0.145228816323E+00  0.149912224644E+00  0.154744003483E+00  0.159728584783E+00
  0.164870505467E+00  0.170174406984E+00  0.175645034462E+00  0.181287235423E+00  0.187105958000E+00
  0.193106248606E+00  0.199293248986E+00  0.205672192581E+00  0.212248400127E+00  0.219027274413E+00
  0.226014294088E+00  0.233215006438E+00  0.240635019009E+00  0.248279989960E+00  0.256155617021E+00
  0.264267624914E+00  0.272621751077E+00  0.281223729542E+00  0.290079272777E+00  0.299194051301E+00
  0.308573670877E+00  0.318223647049E+00  0.328149376795E+00  0.338356107038E+00  0.348848899757E+00
  0.359632593393E+00  0.370711760275E+00  0.382090659728E+00  0.393773186538E+00  0.405762814432E+00
  0.418062534214E+00  0.430674786184E+00  0.443601386474E+00  0.456843446914E+00  0.470401288061E+00
  0.484274345023E+00  0.498461065718E+00  0.512958801245E+00  0.527763688073E+00  0.542870521797E+00
  0.558272622276E+00  0.573961690041E+00  0.589927653967E+00  0.606158510305E+00  0.622640153337E+00
  0.639356198062E+00  0.656287795551E+00  0.673413441817E+00  0.690708781339E+00  0.708146406682E+00
  0.725695655995E+00  0.743322410568E+00  0.760988895060E+00  0.778653483454E+00  0.796270514301E+00
  0.813790119315E+00  0.831158069911E+00  0.848315646740E+00  0.865199537789E+00  0.881741770947E+00
  0.897869687229E+00  0.913505960942E+00  0.928568672933E+00  0.942971442574E+00  0.956623623303E+00
  0.969430565109E+00  0.981293945341E+00  0.992112166427E+00  0.100178081537E+01  0.101019317518E+01
  0.101724077250E+01  0.102281393865E+01  0.102680235280E+01  0.102909552663E+01  0.102958317904E+01
  0.102815543856E+01  0.102470279941E+01  0.101911574728E+01  0.101128396228E+01  0.100109500223E+01
  0.988432371591E+00  0.973172891807E+00  0.955183312892E+00  0.934316145983E+00  0.910412531437E+00
  0.883556989074E+00  0.854076492747E+00  0.822318120273E+00  0.788631299812E+00  0.753364211932E+00
  0.716860314270E+00  0.679455009113E+00  0.641472525657E+00  0.603223013152E+00  0.564999918835E+00
  0.527077674778E+00  0.489709728402E+00  0.453126941106E+00  0.417536369709E+00  0.383120434597E+00
  0.350036467853E+00  0.318416625247E+00  0.288368138459E+00  0.259973878831E+00  0.233293201222E+00
  0.208363035857E+00  0.185199196936E+00  0.163797878352E+00  0.144137308632E+00  0.126179538116E+00
  0.109872331708E+00  0.951511384994E-01  0.819411077778E-01  0.701591165192E-01  0.597157716696E-01
  0.505173479986E-01  0.424676231996E-01  0.354695752015E-01  0.294269127357E-01  0.242454184117E-01
  0.198340927908E-01  0.161060969488E-01  0.129794986210E-01  0.103778325078E-01  0.823048854236E-02
  0.647294328340E-02  0.504684981882E-02  0.390000141065E-02  0.298618411558E-02  0.226493399701E-02
  0.170121521230E-02  0.126503594254E-02
 ae wavefunction
 -0.845117311174E-02 -0.866891074985E-02 -0.889212841239E-02 -0.912095731352E-02 -0.935553138097E-02
 -0.959598728627E-02 -0.984246447337E-02 -0.100951051855E-01 -0.103540544898E-01 -0.106194603008E-01
 -0.108914734001E-01 -0.111702474548E-01 -0.114559390322E-01 -0.117487076121E-01 -0.120487155952E-01
 -0.123561283083E-01 -0.126711140048E-01 -0.129938438615E-01 -0.133244919709E-01 -0.136632353272E-01
 -0.140102538085E-01 -0.143657301514E-01 -0.147298499206E-01 -0.151028014710E-01 -0.154847759021E-01
 -0.158759670053E-01 -0.162765712023E-01 -0.166867874743E-01 -0.171068172816E-01 -0.175368644732E-01
 -0.179771351849E-01 -0.184278377256E-01 -0.188891824514E-01 -0.193613816257E-01 -0.198446492660E-01
 -0.203392009742E-01 -0.208452537520E-01 -0.213630257982E-01 -0.218927362888E-01 -0.224346051365E-01
 -0.229888527310E-01 -0.235556996566E-01 -0.241353663869E-01 -0.247280729560E-01 -0.253340386026E-01
 -0.259534813875E-01 -0.265866177823E-01 -0.272336622267E-01 -0.278948266551E-01 -0.285703199873E-01
 -0.292603475847E-01 -0.299651106681E-01 -0.306848056950E-01 -0.314196236963E-01 -0.321697495667E-01
 -0.329353613107E-01 -0.337166292377E-01 -0.345137151073E-01 -0.353267712190E-01 -0.361559394468E-01
 -0.370013502133E-01 -0.378631214020E-01 -0.387413572043E-01 -0.396361468987E-01 -0.405475635585E-01
 -0.414756626851E-01 -0.424204807641E-01 -0.433820337401E-01 -0.443603154080E-01 -0.453552957159E-01
 -0.463669189780E-01 -0.473951019925E-01 -0.484397320618E-01 -0.495006649117E-01 -0.505777225058E-01
 -0.516706907518E-01 -0.527793170964E-01 -0.539033080064E-01 -0.550423263311E-01 -0.561959885447E-01
 -0.573638618658E-01 -0.585454612502E-01 -0.597402462565E-01 -0.609476177809E-01 -0.621669146612E-01
 -0.633974101473E-01 -0.646383082392E-01 -0.658887398905E-01 -0.671477590802E-01 -0.684143387517E-01
 -0.696873666229E-01 -0.709656408694E-01 -0.722478656852E-01 -0.735326467256E-01 -0.748184864391E-01
 -0.761037792954E-01 -0.773868069193E-01 -0.786657331410E-01 -0.799385989755E-01 -0.812033175462E-01
 -0.824576689686E-01 -0.836992952144E-01 -0.849256949772E-01 -0.861342185642E-01 -0.873220628420E-01
 -0.884862662668E-01 -0.896237040336E-01 -0.907310833828E-01 -0.918049391048E-01 -0.928416292912E-01
 -0.938373313817E-01 -0.947880385627E-01 -0.956895565799E-01 -0.965375010290E-01 -0.973272951985E-01
 -0.980541685415E-01 -0.987131558613E-01 -0.992990973004E-01 -0.998066392331E-01 -0.100230236162E+00
 -0.100564153736E+00 -0.100802473000E+00 -0.100939096013E+00 -0.100967752958E+00 -0.100882010895E+00
 -0.100675284295E+00 -0.100340847518E+00 -0.998718493902E-01 -0.992613300621E-01 -0.985022403007E-01
 -0.975874634136E-01 -0.965098399781E-01 -0.952621955640E-01 -0.938373716378E-01 -0.922282598354E-01
 -0.904278397892E-01 -0.884292206922E-01 -0.862256867744E-01 -0.838107468575E-01 -0.811781881435E-01
 -0.783221343750E-01 -0.752371084860E-01 -0.719180998399E-01 -0.683606361183E-01 -0.645608598958E-01
 -0.605156098899E-01 -0.562225068351E-01 -0.516800438715E-01 -0.468876812811E-01 -0.418459453356E-01
 -0.365565309416E-01 -0.310224076832E-01 -0.252479287683E-01 -0.192389422800E-01 -0.130029040224E-01
 -0.654899113275E-02  0.111784490210E-03  0.696646402134E-02  0.140000320088E-01  0.211953104703E-01
  0.285328582461E-01  0.359908772096E-01  0.435451270968E-01  0.511688508926E-01  0.588327129479E-01
  0.665047522160E-01  0.741503532667E-01  0.817322379504E-01  0.892104807742E-01  0.965425511743E-01
  0.103683385935E+00  0.110585495013E+00  0.117199103973E+00  0.123472336187E+00  0.129351437757E+00
  0.134781048020E+00  0.139704518207E+00  0.144064280580E+00  0.147802270043E+00  0.150860399766E+00
  0.153181091861E+00  0.154707863546E+00  0.155385968456E+00  0.155163091946E+00  0.153990098234E+00
  0.151821826131E+00  0.148617928900E+00  0.144343752416E+00  0.138971244360E+00  0.132479885619E+00
  0.124857633414E+00  0.116101864001E+00  0.106220301020E+00  0.952319138878E-01  0.831677688990E-01
  0.700718141507E-01  0.560015779195E-01  0.410287588991E-01  0.252396857311E-01  0.873562268915E-02
 -0.836710168554E-02 -0.259371656091E-01 -0.438285460523E-01 -0.618810511055E-01 -0.799211099216E-01
 -0.977628354879E-01 -0.115209374102E+00 -0.132054554507E+00 -0.148084848360E+00 -0.163081650645E+00
 -0.176823882036E+00 -0.189090904070E+00 -0.199665724311E+00 -0.208338456465E+00 -0.214909992615E+00
 -0.219195839302E+00 -0.221030062591E+00 -0.220269278799E+00 -0.216796618809E+00 -0.210525586698E+00
 -0.201403728018E+00 -0.189416019043E+00 -0.174587885103E+00 -0.156987754032E+00 -0.136729050064E+00
 -0.113971534931E+00 -0.889219070558E-01 -0.618335771118E-01 -0.330055492011E-01 -0.278035165435E-02
  0.284590203272E-01  0.602931660814E-01  0.922713343989E-01  0.123917427447E+00  0.154736864779E+00
  0.184224166973E+00  0.211871079201E+00  0.237175064414E+00  0.259648084635E+00  0.278825729248E+00
  0.294276784867E+00  0.305613076798E+00  0.312499018624E+00  0.314660271322E+00  0.311891241249E+00
  0.304061380589E+00  0.291120248627E+00  0.273101208687E+00  0.250123598864E+00  0.222393248107E+00
  0.190201283216E+00  0.153921246915E+00  0.114004600523E+00  0.709747162190E-01  0.254194819426E-01
 -0.220173454799E-01 -0.706458919931E-01 -0.119740862918E+00 -0.168553009507E+00 -0.216321172980E+00
 -0.262284695036E+00 -0.305695966448E+00 -0.345832871591E+00 -0.382010875538E+00 -0.413594491681E+00
 -0.440007856792E+00 -0.460744137830E+00 -0.475373518669E+00 -0.483549611511E+00 -0.485014308992E+00
 -0.479601274885E+00 -0.467238319824E+00 -0.447948738458E+00 -0.421851384938E+00 -0.389159118465E+00
 -0.350175319993E+00 -0.305288436715E+00 -0.254964721177E+00 -0.199739442405E+00 -0.140206879034E+00
 -0.770094120637E-01 -0.108260380715E-01  0.576393755915E-01  0.127669783703E+00  0.198546318549E+00
  0.269559057896E+00  0.340016998720E+00  0.409257074969E+00  0.476652102317E+00  0.541617576956E+00
  0.603617290586E+00  0.662167761766E+00  0.716841513147E+00  0.767269246835E+00  0.813140993307E+00
  0.854206326269E+00  0.890273742514E+00  0.921209317238E+00  0.946934745157E+00  0.967424874340E+00
  0.982704836999E+00  0.992846868077E+00  0.997966894200E+00  0.998220957758E+00  0.993801532340E+00
  0.984933765320E+00  0.971871679278E+00  0.954894348710E+00  0.934302069973E+00  0.910412531437E+00
  0.883556989074E+00  0.854076492747E+00  0.822318120273E+00  0.788631299812E+00  0.753364211932E+00
  0.716860314270E+00  0.679455009113E+00  0.641472525657E+00  0.603223013152E+00  0.564999918835E+00
  0.527077674778E+00  0.489709728402E+00  0.453126941106E+00  0.417536369709E+00  0.383120434597E+00
  0.350036467853E+00  0.318416625247E+00  0.288368138459E+00  0.259973878831E+00  0.233293201222E+00
  0.208363035857E+00  0.185199196936E+00  0.163797878352E+00  0.144137308632E+00  0.126179538116E+00
  0.109872331708E+00  0.951511384994E-01  0.819411077778E-01  0.701591165192E-01  0.597157716696E-01
  0.505173479986E-01  0.424676231996E-01  0.354695752015E-01  0.294269127357E-01  0.242454184117E-01
  0.198340927908E-01  0.161060969488E-01  0.129794986210E-01  0.103778325078E-01  0.823048854236E-02
  0.647294328340E-02  0.504684981882E-02  0.390000141065E-02  0.298618411558E-02  0.226493399701E-02
  0.170121521230E-02  0.126503594254E-02
 pseudo wavefunction
 -0.232574039370E-03 -0.240136766896E-03 -0.247945415451E-03 -0.256007981773E-03 -0.264332722634E-03
 -0.272928163295E-03 -0.281803106239E-03 -0.290966640182E-03 -0.300428149382E-03 -0.310197323252E-03
 -0.320284166277E-03 -0.330699008266E-03 -0.341452514926E-03 -0.352555698786E-03 -0.364019930476E-03
 -0.375856950368E-03 -0.388078880605E-03 -0.400698237509E-03 -0.413727944402E-03 -0.427181344842E-03
 -0.441072216282E-03 -0.455414784188E-03 -0.470223736598E-03 -0.485514239172E-03 -0.501301950717E-03
 -0.517603039225E-03 -0.534434198431E-03 -0.551812664909E-03 -0.569756235722E-03 -0.588283286650E-03
 -0.607412791005E-03 -0.627164339065E-03 -0.647558158133E-03 -0.668615133256E-03 -0.690356828607E-03
 -0.712805509571E-03 -0.735984165550E-03 -0.759916533501E-03 -0.784627122248E-03 -0.810141237578E-03
 -0.836485008159E-03 -0.863685412298E-03 -0.891770305567E-03 -0.920768449330E-03 -0.950709540196E-03
 -0.981624240436E-03 -0.101354420937E-02 -0.104650213582E-02 -0.108053177154E-02 -0.111566796581E-02
 -0.115194670112E-02 -0.118940513003E-02 -0.122808161320E-02 -0.126801575866E-02 -0.130924846242E-02
 -0.135182195029E-02 -0.139577982119E-02 -0.144116709172E-02 -0.148803024233E-02 -0.153641726490E-02
 -0.158637771185E-02 -0.163796274693E-02 -0.169122519759E-02 -0.174621960911E-02 -0.180300230040E-02
 -0.186163142173E-02 -0.192216701426E-02 -0.198467107152E-02 -0.204920760290E-02 -0.211584269919E-02
 -0.218464460028E-02 -0.225568376502E-02 -0.232903294340E-02 -0.240476725100E-02 -0.248296424598E-02
 -0.256370400845E-02 -0.264706922249E-02 -0.273314526081E-02 -0.282202027221E-02 -0.291378527181E-02
 -0.300853423428E-02 -0.310636419003E-02 -0.320737532460E-02 -0.331167108128E-02 -0.341935826697E-02
 -0.353054716159E-02 -0.364535163100E-02 -0.376388924361E-02 -0.388628139072E-02 -0.401265341088E-02
 -0.414313471821E-02 -0.427785893488E-02 -0.441696402799E-02 -0.456059245080E-02 -0.470889128859E-02
 -0.486201240930E-02 -0.502011261897E-02 -0.518335382236E-02 -0.535190318865E-02 -0.552593332266E-02
 -0.570562244154E-02 -0.589115455724E-02 -0.608271966488E-02 -0.628051393732E-02 -0.648473992596E-02
 -0.669560676811E-02 -0.691333040108E-02 -0.713813378328E-02 -0.737024712241E-02 -0.760990811114E-02
 -0.785736217041E-02 -0.811286270068E-02 -0.837667134123E-02 -0.864905823805E-02 -0.893030232024E-02
 -0.922069158558E-02 -0.952052339518E-02 -0.983010477786E-02 -0.101497527443E-01 -0.104797946116E-01
 -0.108205683377E-01 -0.111724228679E-01 -0.115357184912E-01 -0.119108272095E-01 -0.122981331175E-01
 -0.126980327962E-01 -0.131109357179E-01 -0.135372646658E-01 -0.139774561656E-01 -0.144319609322E-01
 -0.149012443307E-01 -0.153857868517E-01 -0.158860846030E-01 -0.164026498162E-01 -0.169360113707E-01
 -0.174867153337E-01 -0.180553255183E-01 -0.186424240593E-01 -0.192486120081E-01 -0.198745099462E-01
 -0.205207586189E-01 -0.211880195894E-01 -0.218769759139E-01 -0.225883328385E-01 -0.233228185190E-01
 -0.240811847628E-01 -0.248642077961E-01 -0.256726890548E-01 -0.265074560008E-01 -0.273693629654E-01
 -0.282592920188E-01 -0.291781538680E-01 -0.301268887834E-01 -0.311064675551E-01 -0.321178924795E-01
 -0.331621983779E-01 -0.342404536472E-01 -0.353537613441E-01 -0.365032603041E-01 -0.376901262960E-01
 -0.389155732123E-01 -0.401808542988E-01 -0.414872634213E-01 -0.428361363737E-01 -0.442288522265E-01
 -0.456668347182E-01 -0.471515536896E-01 -0.486845265636E-01 -0.502673198710E-01 -0.519015508236E-01
 -0.535888889360E-01 -0.553310576978E-01 -0.571298362969E-01 -0.589870613962E-01 -0.609046289638E-01
 -0.628844961593E-01 -0.649286832775E-01 -0.670392757498E-01 -0.692184262060E-01 -0.714683565974E-01
 -0.737913603830E-01 -0.761898047789E-01 -0.786661330741E-01 -0.812228670133E-01 -0.838626092470E-01
 -0.865880458525E-01 -0.894019489240E-01 -0.923071792361E-01 -0.953066889798E-01 -0.984035245716E-01
 -0.101600829539E+00 -0.104901847480E+00 -0.108309925102E+00 -0.111828515330E+00 -0.115461180503E+00
 -0.119211595636E+00 -0.123083551766E+00 -0.127080959371E+00 -0.131207851866E+00 -0.135468389171E+00
 -0.139866861350E+00 -0.144407692330E+00 -0.149095443670E+00 -0.153934818413E+00 -0.158930664984E+00
 -0.164087981151E+00 -0.169411918035E+00 -0.174907784158E+00 -0.180581049537E+00 -0.186437349794E+00
 -0.192482490290E+00 -0.198722450260E+00 -0.205163386941E+00 -0.211811639680E+00 -0.218673733990E+00
 -0.225756385559E+00 -0.233066504166E+00 -0.240611197490E+00 -0.248397774786E+00 -0.256433750383E+00
 -0.264726846986E+00 -0.273284998724E+00 -0.282116353901E+00 -0.291229277415E+00 -0.300632352752E+00
 -0.310334383533E+00 -0.320344394497E+00 -0.330671631870E+00 -0.341325563009E+00 -0.352315875220E+00
 -0.363652473639E+00 -0.375345478034E+00 -0.387405218389E+00 -0.399842229102E+00 -0.412667241604E+00
 -0.425891175204E+00 -0.439525125910E+00 -0.453580352977E+00 -0.468068262877E+00 -0.483000390362E+00
 -0.498388376249E+00 -0.514243941512E+00 -0.530578857199E+00 -0.547404909664E+00 -0.564733860504E+00
 -0.582577400551E+00 -0.600947097157E+00 -0.619854333945E+00 -0.639310242070E+00 -0.659325621945E+00
 -0.679910854231E+00 -0.701075798768E+00 -0.722829679945E+00 -0.745180956840E+00 -0.768137176246E+00
 -0.791704806503E+00 -0.815889049769E+00 -0.840693630144E+00 -0.866120554709E+00 -0.892169844269E+00
 -0.918839230193E+00 -0.946123813391E+00 -0.974015681046E+00 -0.100250347630E+01 -0.103157191559E+01
 -0.106120124800E+01 -0.109136665025E+01 -0.112203755086E+01 -0.115317687617E+01 -0.118474021088E+01
 -0.121667486513E+01 -0.124891884022E+01 -0.128139968483E+01 -0.131403323387E+01 -0.134672222263E+01
 -0.137935476977E+01 -0.141180272402E+01 -0.144391987165E+01 -0.147554000461E+01 -0.150647485322E+01
 -0.153651189217E+01 -0.156541203573E+01 -0.159290724603E+01 -0.161869808922E+01 -0.164245128715E+01
 -0.166379732824E+01 -0.168232822033E+01 -0.169759549074E+01 -0.170910856560E+01 -0.171633369041E+01
 -0.171869358884E+01 -0.171556809416E+01 -0.170629602932E+01 -0.169017865451E+01 -0.166648504394E+01
 -0.163445979463E+01 -0.159333350379E+01 -0.154233647503E+01 -0.148071611945E+01 -0.140775849795E+01
 -0.132281439696E+01 -0.122533022944E+01 -0.111488389407E+01 -0.991225495807E+00 -0.854322516445E+00
 -0.704408615404E+00 -0.542034731393E+00 -0.368120546378E+00 -0.184003677381E+00  0.851630577772E-02
  0.207166021527E+00  0.409318010417E+00  0.612059206302E+00  0.000000000000E+00  0.000000000000E+00
  0.000000000000E+00  0.000000000000E+00  0.000000000000E+00  0.000000000000E+00  0.000000000000E+00
  0.000000000000E+00  0.000000000000E+00  0.000000000000E+00  0.000000000000E+00  0.000000000000E+00
  0.000000000000E+00  0.000000000000E+00  0.000000000000E+00  0.000000000000E+00  0.000000000000E+00
  0.000000000000E+00  0.000000000000E+00  0.000000000000E+00  0.000000000000E+00  0.000000000000E+00
  0.000000000000E+00  0.000000000000E+00  0.000000000000E+00  0.000000000000E+00  0.000000000000E+00
  0.000000000000E+00  0.000000000000E+00  0.000000000000E+00  0.000000000000E+00  0.000000000000E+00
  0.000000000000E+00  0.000000000000E+00  0.000000000000E+00  0.000000000000E+00  0.000000000000E+00
  0.000000000000E+00  0.000000000000E+00  0.000000000000E+00  0.000000000000E+00  0.000000000000E+00
  0.000000000000E+00  0.000000000000E+00
 ae wavefunction
  0.153036042057E-01  0.156978890487E-01  0.161020972418E-01  0.165164663897E-01  0.169412390108E-01
  0.173766625919E-01  0.178229896401E-01  0.182804777313E-01  0.187493895553E-01  0.192299929572E-01
  0.197225609743E-01  0.202273718687E-01  0.207447091542E-01  0.212748616185E-01  0.218181233384E-01
  0.223747936887E-01  0.229451773442E-01  0.235295842732E-01  0.241283297232E-01  0.247417341965E-01
  0.253701234168E-01  0.260138282844E-01  0.266731848203E-01  0.273485340975E-01  0.280402221592E-01
  0.287485999226E-01  0.294740230674E-01  0.302168519081E-01  0.309774512479E-01  0.317561902152E-01
  0.325534420787E-01  0.333695840422E-01  0.342049970156E-01  0.350600653629E-01  0.359351766229E-01
  0.368307212037E-01  0.377470920473E-01  0.386846842631E-01  0.396438947288E-01  0.406251216559E-01
  0.416287641186E-01  0.426552215427E-01  0.437048931533E-01  0.447781773779E-01  0.458754712030E-01
  0.469971694814E-01  0.481436641863E-01  0.493153436116E-01  0.505125915119E-01  0.517357861825E-01
  0.529852994736E-01  0.542614957354E-01  0.555647306921E-01  0.568953502384E-01  0.582536891568E-01
  0.596400697503E-01  0.610548003857E-01  0.624981739453E-01  0.639704661791E-01  0.654719339555E-01
  0.670028134040E-01  0.685633179456E-01  0.701536362043E-01  0.717739297965E-01  0.734243309905E-01
  0.751049402321E-01  0.768158235286E-01  0.785570096881E-01  0.803284874047E-01  0.821302021867E-01
  0.839620531189E-01  0.858238894548E-01  0.877155070312E-01  0.896366444998E-01  0.915869793693E-01
  0.935661238513E-01  0.955736205056E-01  0.976089376769E-01  0.996714647198E-01  0.101760507004E+00
  0.103875280699E+00  0.106014907325E+00  0.108178408080E+00  0.110364697927E+00  0.112572579438E+00
  0.114800736411E+00  0.117047727231E+00  0.119311977998E+00  0.121591775411E+00  0.123885259416E+00
  0.126190415618E+00  0.128505067460E+00  0.130826868188E+00  0.133153292595E+00  0.135481628567E+00
  0.137808968444E+00  0.140132200206E+00  0.142447998505E+00  0.144752815581E+00  0.147042872062E+00
  0.149314147699E+00  0.151562372069E+00  0.153783015274E+00  0.155971278689E+00  0.158122085810E+00
  0.160230073256E+00  0.162289581980E+00  0.164294648773E+00  0.166238998121E+00  0.168116034511E+00
  0.169918835272E+00  0.171640144057E+00  0.173272365063E+00  0.174807558133E+00  0.176237434847E+00
  0.177553355752E+00  0.178746328894E+00  0.179807009796E+00  0.180725703074E+00  0.181492365879E+00
  0.182096613359E+00  0.182527726360E+00  0.182774661604E+00  0.182826064568E+00  0.182670285337E+00
  0.182295397688E+00  0.181689221692E+00  0.180839350124E+00  0.179733178989E+00  0.178357942481E+00
  0.176700752685E+00  0.174748644383E+00  0.172488625261E+00  0.169907731899E+00  0.166993091848E+00
  0.163731992154E+00  0.160111954651E+00  0.156120818340E+00  0.151746829153E+00  0.146978737396E+00
  0.141805903105E+00  0.136218409539E+00  0.130207184985E+00  0.123764132989E+00  0.116882271076E+00
  0.109555877945E+00  0.101780649034E+00  0.935538602752E-01  0.848745397209E-01  0.757436466249E-01
  0.661642574020E-01  0.561417577474E-01  0.456840400180E-01  0.348017047914E-01  0.235082653181E-01
  0.118203533639E-01 -0.242075279321E-03 -0.126555375676E-01 -0.253928244429E-01 -0.384228089481E-01
 -0.517102638646E-01 -0.652156917742E-01 -0.788951707377E-01 -0.927002191032E-01 -0.106577683384E+00
 -0.120469653535E+00 -0.134313410451E+00 -0.148041410889E+00 -0.161581315368E+00 -0.174856064819E+00
 -0.187784011878E+00 -0.200279112738E+00 -0.212251185370E+00 -0.223606239817E+00 -0.234246885968E+00
 -0.244072823962E+00 -0.252981421905E+00 -0.260868385141E+00 -0.267628520659E+00 -0.273156599469E+00
 -0.277348318847E+00 -0.280101365211E+00 -0.281316577051E+00 -0.280899205827E+00 -0.278760270920E+00
 -0.274818002787E+00 -0.268999366200E+00 -0.261241653046E+00 -0.251494131498E+00 -0.239719735546E+00
 -0.225896775918E+00 -0.210020650288E+00 -0.192105527579E+00 -0.172185977981E+00 -0.150318517265E+00
 -0.126583031086E+00 -0.101084042304E+00 -0.739517820930E-01 -0.453430238526E-01 -0.154416378667E-01
  0.155411754674E-01  0.473670149639E-01  0.797708093119E-01  0.112461784406E+00  0.145124898725E+00
  0.177422774616E+00  0.208998150835E+00  0.239476880058E+00  0.268471492732E+00  0.295585343060E+00
  0.320417340912E+00  0.342567253226E+00  0.361641533618E+00  0.377259616699E+00  0.389060599496E+00
  0.396710222335E+00  0.399908049575E+00  0.398394735080E+00  0.391959241369E+00  0.380445868143E+00
  0.363760936019E+00  0.341878963772E+00  0.314848171466E+00  0.282795137834E+00  0.245928438841E+00
  0.204541096769E+00  0.159011676519E+00  0.109803879044E+00  0.574645017101E-01  0.261966202253E-02
 -0.540307857608E-01 -0.111720671854E+00 -0.169626752597E+00 -0.226879693296E+00 -0.282576632087E+00
 -0.335795070976E+00 -0.385607769051E+00 -0.431098330151E+00 -0.471377338424E+00 -0.505599148472E+00
 -0.532979498400E+00 -0.552813630617E+00 -0.564493891708E+00 -0.567525721710E+00 -0.561541538862E+00
 -0.546312448271E+00 -0.521757690957E+00 -0.487951597206E+00 -0.445127741675E+00 -0.393680058642E+00
 -0.334160809807E+00 -0.267275431642E+00 -0.193874385133E+00 -0.114942187130E+00 -0.315838349291E-01
  0.549911414394E-01  0.143486743417E+00  0.232540404396E+00  0.320744417062E+00  0.406668544389E+00
  0.488883434937E+00  0.565984428813E+00  0.636615312821E+00  0.699491559918E+00  0.753422569587E+00
  0.797332403409E+00  0.830278504790E+00  0.851467936307E+00  0.860270845040E+00  0.856231173472E+00
  0.839074949529E+00  0.808716554008E+00  0.765263036200E+00  0.709016006528E+00  0.640470392235E+00
  0.560309492060E+00  0.469396239500E+00  0.368760963575E+00  0.259586131842E+00  0.143188618441E+00
  0.210000553460E-01 -0.105454167798E+00 -0.234576689894E+00 -0.364720209704E+00 -0.494209270926E+00
 -0.621361380929E+00 -0.744507127494E+00 -0.862009046881E+00 -0.972279083877E+00 -0.107379457206E+01
 -0.116511273090E+01 -0.124488375312E+01 -0.131186261303E+01 -0.136491977086E+01 -0.140305099227E+01
 -0.142538653066E+01 -0.143119992525E+01 -0.141991667779E+01 -0.139112305256E+01 -0.134457521247E+01
 -0.128020886602E+01 -0.119814953376E+01 -0.109872347538E+01 -0.982469228053E+00 -0.850149618088E+00
 -0.702763997257E+00 -0.541560354501E+00 -0.368046834165E+00 -0.184002079971E+00  0.851630577772E-02
  0.207166021527E+00  0.409318010417E+00  0.612059206302E+00  0.000000000000E+00  0.000000000000E+00
  0.000000000000E+00  0.000000000000E+00  0.000000000000E+00  0.000000000000E+00  0.000000000000E+00
  0.000000000000E+00  0.000000000000E+00  0.000000000000E+00  0.000000000000E+00  0.000000000000E+00
  0.000000000000E+00  0.000000000000E+00  0.000000000000E+00  0.000000000000E+00  0.000000000000E+00
  0.000000000000E+00  0.000000000000E+00  0.000000000000E+00  0.000000000000E+00  0.000000000000E+00
  0.000000000000E+00  0.000000000000E+00  0.000000000000E+00  0.000000000000E+00  0.000000000000E+00
  0.000000000000E+00  0.000000000000E+00  0.000000000000E+00  0.000000000000E+00  0.000000000000E+00
  0.000000000000E+00  0.000000000000E+00  0.000000000000E+00  0.000000000000E+00  0.000000000000E+00
  0.000000000000E+00  0.000000000000E+00  0.000000000000E+00  0.000000000000E+00  0.000000000000E+00
  0.000000000000E+00  0.000000000000E+00
 pseudo wavefunction
  0.402316199452E-08  0.428906242077E-08  0.457253684394E-08  0.487474677164E-08  0.519693047829E-08
  0.554040807884E-08  0.590658693780E-08  0.629696743577E-08  0.671314911712E-08  0.715683724391E-08
  0.762984978309E-08  0.813412485538E-08  0.867172867654E-08  0.924486402352E-08  0.985587926002E-08
  0.105072779588E-07  0.112017291596E-07  0.119420783056E-07  0.127313589019E-07  0.135728049455E-07
  0.144698641757E-07  0.154262122014E-07  0.164457675612E-07  0.175327077791E-07  0.186914864821E-07
  0.199268516478E-07  0.212438650588E-07  0.226479230435E-07  0.241447785862E-07  0.257405648998E-07
  0.274418205560E-07  0.292555162762E-07  0.311890834935E-07  0.332504448022E-07  0.354480464198E-07
  0.377908927945E-07  0.402885834999E-07  0.429513525685E-07  0.457901104243E-07  0.488164885873E-07
  0.520428873326E-07  0.554825264987E-07  0.591494996550E-07  0.630588318485E-07  0.672265411673E-07
  0.716697043730E-07  0.764065268711E-07  0.814564173058E-07  0.868400670844E-07  0.925795351589E-07
  0.986983384094E-07  0.105221548003E-06  0.112175892119E-06  0.119589865465E-06  0.127493846033E-06
  0.135920219568E-06  0.144903512263E-06  0.154480532232E-06  0.164690520322E-06  0.175575310900E-06
  0.187179503266E-06  0.199550644392E-06  0.212739423740E-06  0.226799880959E-06  0.241789627304E-06
  0.257770081693E-06  0.274806722361E-06  0.292969355156E-06  0.312332399555E-06  0.332975193588E-06
  0.354982318924E-06  0.378443947425E-06  0.403456210621E-06  0.430121593596E-06  0.458549354907E-06
  0.488855974257E-06  0.521165629759E-06  0.555610706737E-06  0.592332340161E-06  0.631480992928E-06
  0.673217072363E-06  0.717711587470E-06  0.765146849614E-06  0.815717219521E-06  0.869629903643E-06
  0.927105803156E-06  0.988380419072E-06  0.105370481717E-05  0.112334665670E-05  0.119759128707E-05
  0.127674291704E-05  0.136112586115E-05  0.145108586854E-05  0.154699153964E-05  0.164923583638E-05
  0.175823769234E-05  0.187444372925E-05  0.199833008690E-05  0.213040437406E-05  0.227120774832E-05
  0.242131713332E-05  0.258134758265E-05  0.275195479981E-05  0.293383782490E-05  0.312774189869E-05
  0.333446151611E-05  0.355484368148E-05  0.378979137889E-05  0.404026727193E-05  0.430729764794E-05
  0.459197662289E-05  0.489547062421E-05  0.521902316984E-05  0.556395996314E-05  0.593169432445E-05
  0.632373298170E-05  0.674168224361E-05  0.718725458090E-05  0.766227564241E-05  0.816869173486E-05
  0.870857779695E-05  0.928414590040E-05  0.989775431273E-05  0.105519171590E-04  0.112493147219E-04
  0.119928044228E-04  0.127854325278E-04  0.136304466283E-04  0.145313089450E-04  0.154917105123E-04
  0.165155862992E-04  0.176071313291E-04  0.187708178658E-04  0.200114137340E-04  0.213340018505E-04
  0.227440010466E-04  0.242471882648E-04  0.258497222238E-04  0.275581686456E-04  0.293795271495E-04
  0.313212599236E-04  0.333913222891E-04  0.355981952852E-04  0.379509204051E-04  0.404591366271E-04
  0.431331198924E-04  0.459838251887E-04  0.490229314151E-04  0.522628892093E-04  0.557169719331E-04
  0.593993300256E-04  0.633250489451E-04  0.675102109368E-04  0.719719608799E-04  0.767285764803E-04
  0.817995430991E-04  0.872056335196E-04  0.929689929798E-04  0.991132298174E-04  0.105663512097E-03
  0.112646670613E-03  0.120091308690E-03  0.128027919229E-03  0.136489009466E-03  0.145509233977E-03
  0.155125536433E-03  0.165377300723E-03  0.176306512025E-03  0.187957928505E-03  0.200379264330E-03
  0.213621384736E-03  0.227738513956E-03  0.242788456840E-03  0.258832835068E-03  0.275937338922E-03
  0.294171995623E-03  0.313611455332E-03  0.334335295963E-03  0.356428348043E-03  0.379981040934E-03
  0.405089771798E-03  0.431857298820E-03  0.460393160236E-03  0.490814120881E-03  0.523244648030E-03
  0.557817418445E-03  0.594673858664E-03  0.633964720677E-03  0.675850695301E-03  0.720503065680E-03
  0.768104403530E-03  0.818849310859E-03  0.872945210135E-03  0.930613185981E-03  0.992088881752E-03
  0.105762345448E-02  0.112748459197E-02  0.120195759593E-02  0.128134653550E-02  0.136597547550E-02
  0.145618978420E-02  0.155235752571E-02  0.165487094218E-02  0.176414803165E-02  0.188063422729E-02
  0.200480418463E-02  0.213716368330E-02  0.227825165046E-02  0.242864231329E-02  0.258894748872E-02
  0.275981901838E-02  0.294195135794E-02  0.313608432984E-02  0.334300604942E-02  0.356355603447E-02
  0.379862850930E-02  0.404917591438E-02  0.431621263362E-02  0.460081895170E-02  0.490414525429E-02
  0.522741648496E-02  0.557193687272E-02  0.593909494489E-02  0.633036884057E-02  0.674733194036E-02
  0.719165882861E-02  0.766513160476E-02  0.816964656093E-02  0.870722124303E-02  0.928000191309E-02
  0.989027143049E-02  0.105404575699E-01  0.112331417936E-01  0.119710684952E-01  0.127571547326E-01
  0.135945004641E-01  0.144863993055E-01  0.154363498188E-01  0.164480673470E-01  0.175254964021E-01
  0.186728236153E-01  0.198944912501E-01  0.211952112811E-01  0.225799800288E-01  0.240540933430E-01
  0.256231623134E-01  0.272931294834E-01  0.290702855303E-01  0.309612863661E-01  0.329731706009E-01
  0.351133772937E-01  0.373897639030E-01  0.398106243279E-01  0.423847069088E-01  0.451212322351E-01
  0.480299105755E-01  0.511209587191E-01  0.544051159783E-01  0.578936590636E-01  0.615984155014E-01
  0.655317752084E-01  0.697066997901E-01  0.741367290623E-01  0.788359842336E-01  0.838191671071E-01
  0.891015545841E-01  0.946989876590E-01  0.100627854002E+00  0.106905063117E+00  0.113548012962E+00
  0.120574546773E+00  0.128002898748E+00  0.135851627055E+00  0.144139532545E+00  0.152885561356E+00
  0.162108689469E+00  0.171827787109E+00  0.182061460722E+00  0.192827870125E+00  0.204144518219E+00
  0.216028010576E+00  0.228493781987E+00  0.241555786989E+00  0.255226151226E+00  0.269514780402E+00
  0.284428923492E+00  0.299972686788E+00  0.316146495296E+00  0.332946497958E+00  0.350363913100E+00
  0.368384310488E+00  0.386986826318E+00  0.406143307404E+00  0.425817380745E+00  0.445963444560E+00
  0.466525576755E+00  0.487436356673E+00  0.508615595912E+00  0.529968974032E+00  0.551386575307E+00
  0.572741323399E+00  0.593887312350E+00  0.614658034991E+00  0.634864514247E+00  0.654293349857E+00
  0.672704703488E+00  0.689830260525E+00  0.705371228358E+00  0.718996460432E+00  0.730345799604E+00
  0.739241490138E+00  0.745694960259E+00  0.749742577651E+00  0.751432965259E+00  0.750826330752E+00
  0.747993734166E+00  0.743016288020E+00  0.735984297246E+00  0.726996338802E+00  0.716158300352E+00
  0.703582392773E+00  0.689386158235E+00  0.673691495662E+00  0.656623723652E+00  0.638310696361E+00
  0.618881981412E+00  0.598468101302E+00  0.577199832037E+00  0.555207546251E+00  0.532620583617E+00
  0.509566629950E+00  0.486171088389E+00  0.462556431190E+00  0.438841529971E+00  0.415140972906E+00
  0.391564388203E+00  0.368215798713E+00  0.345193053952E+00  0.322587359899E+00  0.300482940556E+00
  0.278956840719E+00  0.258078862815E+00  0.237911610608E+00  0.218510596396E+00  0.199924359965E+00
  0.182194549823E+00  0.165355930649E+00  0.149436302822E+00  0.134456345651E+00  0.120429419487E+00
  0.107361378071E+00  0.952504482843E-01  0.840872296301E-01  0.738548525281E-01  0.645293164422E-01
  0.560800097088E-01  0.484703957755E-01
 ae wavefunction
  0.288376052398E-04  0.304149391249E-04  0.320753773798E-04  0.338234666641E-04  0.356639948251E-04
  0.376020041415E-04  0.396428052795E-04  0.417919919972E-04  0.440554566385E-04  0.464394064603E-04
  0.489503808395E-04  0.515952694071E-04  0.543813311609E-04  0.573162146112E-04  0.604079790144E-04
  0.636651167558E-04  0.670965769440E-04  0.707117902822E-04  0.745206952873E-04  0.785337659290E-04
  0.827620407685E-04  0.872171536734E-04  0.919113662011E-04  0.968576017329E-04  0.102069481463E-03
  0.107561362331E-03  0.113348377014E-03  0.119446476077E-03  0.125872472412E-03  0.132644088069E-03
  0.139780003624E-03  0.147299910210E-03  0.155224564349E-03  0.163575845743E-03  0.172376818170E-03
  0.181651793655E-03  0.191426400078E-03  0.201727652409E-03  0.212584027751E-03  0.224025544390E-03
  0.236083845054E-03  0.248792284602E-03  0.262186022365E-03  0.276302119375E-03  0.291179640725E-03
  0.306859763317E-03  0.323385889275E-03  0.340803765282E-03  0.359161608148E-03  0.378510236900E-03
  0.398903211718E-03  0.420396980021E-03  0.443051030066E-03  0.466928052389E-03  0.492094109452E-03
  0.518618813874E-03  0.546575515623E-03  0.576041498562E-03  0.607098186762E-03  0.639831360984E-03
  0.674331385760E-03  0.710693447515E-03  0.749017804146E-03  0.789410046522E-03  0.831981372358E-03
  0.876848872891E-03  0.924135832844E-03  0.973972044107E-03  0.102649413359E-02  0.108184590569E-02
  0.114017869983E-02  0.120165176339E-02  0.126643264059E-02  0.133469757754E-02  0.140663194393E-02
  0.148243067152E-02  0.156229870994E-02  0.164645149973E-02  0.173511546302E-02  0.182852851186E-02
  0.192694057418E-02  0.203061413741E-02  0.213982480950E-02  0.225486189715E-02  0.237602900078E-02
  0.250364462574E-02  0.263804280904E-02  0.277957376067E-02  0.292860451848E-02  0.308551961533E-02
  0.325072175683E-02  0.342463250798E-02  0.360769298654E-02  0.380036456057E-02  0.400312954745E-02
  0.421649191106E-02  0.444097795350E-02  0.467713699712E-02  0.492554205235E-02  0.518679046590E-02
  0.546150454358E-02  0.575033214126E-02  0.605394721660E-02  0.637305033361E-02  0.670836911113E-02
  0.706065860552E-02  0.743070161670E-02  0.781930890582E-02  0.822731931180E-02  0.865559975234E-02
  0.910504509445E-02  0.957657787759E-02  0.100711478714E-01  0.105897314488E-01  0.111333307525E-01
  0.117029726337E-01  0.122997073367E-01  0.129246069051E-01  0.135787632804E-01  0.142632860637E-01
  0.149792999084E-01  0.157279415110E-01  0.165103561637E-01  0.173276938318E-01  0.181811047158E-01
  0.190717342585E-01  0.200007175526E-01  0.209691731042E-01  0.219781959083E-01  0.230288497856E-01
  0.241221589350E-01  0.252590986519E-01  0.264405851611E-01  0.276674645178E-01  0.289405005258E-01
  0.302603616250E-01  0.316276067046E-01  0.330426697953E-01  0.345058436045E-01  0.360172618560E-01
  0.375768804073E-01  0.391844571194E-01  0.408395304676E-01  0.425413968860E-01  0.442890868557E-01
  0.460813397554E-01  0.479165775119E-01  0.497928771052E-01  0.517079420015E-01  0.536590726124E-01
  0.556431359021E-01  0.576565342924E-01  0.596951740477E-01  0.617544333483E-01  0.638291303032E-01
  0.659134911787E-01  0.680011191644E-01  0.700849640291E-01  0.721572930616E-01  0.742096637341E-01
  0.762328985770E-01  0.782170628101E-01  0.801514453550E-01  0.820245439331E-01  0.838240550536E-01
  0.855368697904E-01  0.871490763334E-01  0.886459703700E-01  0.900120743924E-01  0.912311670464E-01
  0.922863236394E-01  0.931599689088E-01  0.938339431324E-01  0.942895826303E-01  0.945078156676E-01
  0.944692747247E-01  0.941544260357E-01  0.935437172299E-01  0.926177438035E-01  0.913574350250E-01
  0.897442597079E-01  0.877604520761E-01  0.853892576996E-01  0.826151991757E-01  0.794243608901E-01
  0.758046917953E-01  0.717463246996E-01  0.672419100674E-01  0.622869617887E-01  0.568802117943E-01
  0.510239697664E-01  0.447244835447E-01  0.379922951504E-01  0.308425866695E-01  0.232955095559E-01
  0.153764902598E-01  0.711650446822E-02 -0.144768830378E-02 -0.102733584842E-01 -0.193116775916E-01
 -0.285076558724E-01 -0.378001553811E-01 -0.471219870425E-01 -0.564000996446E-01 -0.655558681578E-01
 -0.745054885179E-01 -0.831604861589E-01 -0.914283460050E-01 -0.992132717978E-01 -0.106417081755E+00
 -0.112940244691E+00 -0.118683055484E+00 -0.123546942489E+00 -0.127435894321E+00 -0.130257991015E+00
 -0.131927023080E+00 -0.132364179612E+00 -0.131499782922E+00 -0.129275043058E+00 -0.125643802234E+00
 -0.120574236488E+00 -0.114050479668E+00 -0.106074132624E+00 -0.966656185215E-01 -0.858653435040E-01
 -0.737346209570E-01 -0.603563176629E-01 -0.458351814465E-01 -0.302978127729E-01 -0.138922472323E-01
  0.321287809515E-02  0.208295936421E-01  0.387523109647E-01  0.567599761771E-01  0.746186383429E-01
  0.920843827133E-01  0.108906557812E+00  0.124831228670E+00  0.139604835510E+00  0.152978118023E+00
  0.164710398002E+00  0.174574180857E+00  0.182359813953E+00  0.187879896892E+00  0.190973304836E+00
  0.191508816445E+00  0.189388337502E+00  0.184549659850E+00  0.176968663686E+00  0.166660877965E+00
  0.153682345877E+00  0.138129778605E+00  0.120140007072E+00  0.998887561916E-01  0.775887733085E-01
  0.534873462910E-01  0.278632497587E-01  0.102316180507E-02 -0.267024008977E-01 -0.549635740981E-01
 -0.833959980948E-01 -0.111625955543E+00 -0.139275709034E+00 -0.165968942191E+00 -0.191336196943E+00
 -0.215020185381E+00 -0.236680840493E+00 -0.255999965980E+00 -0.272685378758E+00 -0.286474521635E+00
 -0.297137635057E+00 -0.304480635505E+00 -0.308347780208E+00 -0.308624022137E+00 -0.305236829793E+00
 -0.298157229567E+00 -0.287399943138E+00 -0.273022609650E+00 -0.255124155419E+00 -0.233842401310E+00
 -0.209351009055E+00 -0.181855876770E+00 -0.151591105637E+00 -0.118814666501E+00 -0.838038966184E-01
 -0.468509511700E-01 -0.825832241626E-02  0.316654748718E-01  0.726099698754E-01  0.114266489036E+00
  0.156331547949E+00  0.198509849081E+00  0.240516867868E+00  0.282081022480E+00  0.322945435036E+00
  0.362869303352E+00  0.401628909773E+00  0.439018302511E+00  0.474849689675E+00  0.508953588979E+00
  0.541178778904E+00  0.571392094386E+00  0.599478108944E+00  0.625338738053E+00  0.648892795269E+00
  0.670075521202E+00  0.688838102100E+00  0.705147183666E+00  0.718984384085E+00  0.730345799604E+00
  0.739241490138E+00  0.745694960259E+00  0.749742577651E+00  0.751432965259E+00  0.750826330752E+00
  0.747993734166E+00  0.743016288020E+00  0.735984297246E+00  0.726996338802E+00  0.716158300352E+00
  0.703582392773E+00  0.689386158235E+00  0.673691495662E+00  0.656623723652E+00  0.638310696361E+00
  0.618881981412E+00  0.598468101302E+00  0.577199832037E+00  0.555207546251E+00  0.532620583617E+00
  0.509566629950E+00  0.486171088389E+00  0.462556431190E+00  0.438841529971E+00  0.415140972906E+00
  0.391564388203E+00  0.368215798713E+00  0.345193053952E+00  0.322587359899E+00  0.300482940556E+00
  0.278956840719E+00  0.258078862815E+00  0.237911610608E+00  0.218510596396E+00  0.199924359965E+00
  0.182194549823E+00  0.165355930649E+00  0.149436302822E+00  0.134456345651E+00  0.120429419487E+00
  0.107361378071E+00  0.952504482843E-01  0.840872296301E-01  0.738548525281E-01  0.645293164422E-01
  0.560800097088E-01  0.484703957755E-01
 pseudo wavefunction
  0.120709465754E-07  0.128687443878E-07  0.137192705711E-07  0.146260100697E-07  0.155926781565E-07
  0.166232356555E-07  0.177219051713E-07  0.188931883902E-07  0.201418845261E-07  0.214731099842E-07
  0.228923193254E-07  0.244053276154E-07  0.260183342516E-07  0.277379483644E-07  0.295712158977E-07
  0.315256484782E-07  0.336092541945E-07  0.358305704088E-07  0.381986987379E-07  0.407233423463E-07
  0.434148457040E-07  0.462842369717E-07  0.493432731876E-07  0.526044884407E-07  0.560812452281E-07
  0.597877892061E-07  0.637393075606E-07  0.679519912349E-07  0.724431012707E-07  0.772310395329E-07
  0.823354241098E-07  0.877771696960E-07  0.935785732882E-07  0.997634055452E-07  0.106357008185E-06
  0.113386397820E-06  0.120880376657E-06  0.128869650506E-06  0.137386954599E-06  0.146467187719E-06
  0.156147555191E-06  0.166467721328E-06  0.177469971953E-06  0.189199387660E-06  0.201704028527E-06
  0.215035131034E-06  0.229247318006E-06  0.244398822416E-06  0.260551725996E-06  0.277772213604E-06
  0.296130844415E-06  0.315702841024E-06  0.336568397668E-06  0.358813008809E-06  0.382527819439E-06
  0.407809998541E-06  0.434763137222E-06  0.463497673170E-06  0.494131343159E-06  0.526789665464E-06
  0.561606454157E-06  0.598724367393E-06  0.638295491940E-06  0.680481966336E-06  0.725456645229E-06
  0.773403807636E-06  0.824519912000E-06  0.879014401156E-06  0.937110560502E-06  0.999046432880E-06
  0.106507579393E-05  0.113546919190E-05  0.121051505621E-05  0.129052087920E-05  0.137581447611E-05
  0.146674532820E-05  0.156368601477E-05  0.166703373967E-05  0.177721195888E-05  0.189467211549E-05
  0.201989548950E-05  0.215339516971E-05  0.229571815610E-05  0.244744760108E-05  0.260920519881E-05
  0.278165373259E-05  0.296549979042E-05  0.316149666021E-05  0.337044741622E-05  0.359320820954E-05
  0.383069177601E-05  0.408387117601E-05  0.435378378143E-05  0.464153552605E-05  0.494830543697E-05
  0.527535046538E-05  0.562401063675E-05  0.599571454123E-05  0.639198518705E-05  0.681444624070E-05
  0.726482867954E-05  0.774497788408E-05  0.825686119896E-05  0.880257599369E-05  0.938435825604E-05
  0.100045917534E-04  0.106658177996E-04  0.113707456673E-04  0.121222636881E-04  0.129234510868E-04
  0.137775905977E-04  0.146881819138E-04  0.156589560262E-04  0.166938905100E-04  0.177972258209E-04
  0.189734826687E-04  0.202274805389E-04  0.215643574383E-04  0.229895909454E-04  0.245090206521E-04
  0.261288720879E-04  0.278557822259E-04  0.296968266735E-04  0.316595486601E-04  0.337519899408E-04
  0.359827237413E-04  0.383608898805E-04  0.408962322137E-04  0.435991385499E-04  0.464806832060E-04
  0.495526723745E-04  0.528276924866E-04  0.563191617722E-04  0.600413852262E-04  0.640096132061E-04
  0.682401039014E-04  0.727501899292E-04  0.775583493308E-04  0.826842812574E-04  0.881489866559E-04
  0.939748542848E-04  0.100185752412E-03  0.106807126569E-03  0.113866103762E-03  0.121391603568E-03
  0.129414456565E-03  0.137967530585E-03  0.147085865305E-03  0.156806815724E-03  0.167170205120E-03
  0.178218488096E-03  0.189996924401E-03  0.202553764218E-03  0.215940445693E-03  0.230211805491E-03
  0.245426303259E-03  0.261646260899E-03  0.278938117631E-03  0.297372701885E-03  0.317025521135E-03
  0.337977070847E-03  0.360313163814E-03  0.384125281203E-03  0.409510946756E-03  0.436574125662E-03
  0.465425649724E-03  0.496183670548E-03  0.528974142597E-03  0.563931338075E-03  0.601198395721E-03
  0.640927905754E-03  0.683282533326E-03  0.728435683014E-03  0.776572207049E-03  0.827889160127E-03
  0.882596603878E-03  0.940918464211E-03  0.100309344502E-02  0.106937600193E-02  0.114003737994E-02
  0.121536671928E-02  0.129567223374E-02  0.138128246631E-02  0.147254762719E-02  0.156984101932E-02
  0.167356055740E-02  0.178413038624E-02  0.190200260491E-02  0.202765910361E-02  0.216161352046E-02
  0.230441332594E-02  0.245664204323E-02  0.261892161312E-02  0.279191491281E-02  0.297632843839E-02
  0.317291516146E-02  0.338247757096E-02  0.360587091198E-02  0.384400663396E-02  0.409785606158E-02
  0.436845430225E-02  0.465690440503E-02  0.496438178673E-02  0.529213894174E-02  0.564151045315E-02
  0.601391832368E-02  0.641087764610E-02  0.683400263372E-02  0.728501303273E-02  0.776574093945E-02
  0.827813804661E-02  0.882428334398E-02  0.940639130021E-02  0.100268205537E-01  0.106880831420E-01
  0.113928543003E-01  0.121439828606E-01  0.129445022865E-01  0.137976423757E-01  0.147068416692E-01
  0.156757606016E-01  0.167082954337E-01  0.178085930045E-01  0.189810663450E-01  0.202304111937E-01
  0.215616234568E-01  0.229800176550E-01  0.244912463980E-01  0.261013209315E-01  0.278166327939E-01
  0.296439766267E-01  0.315905741729E-01  0.336640995001E-01  0.358727054806E-01  0.382250515529E-01
  0.407303327872E-01  0.433983102679E-01  0.462393427970E-01  0.492644199123E-01  0.524851961994E-01
  0.559140268629E-01  0.595640045007E-01  0.634489970043E-01  0.675836864815E-01  0.719836090647E-01
  0.766651954356E-01  0.816458118488E-01  0.869438013913E-01  0.925785251556E-01  0.985704029368E-01
  0.104940952986E+00  0.111712830262E+00  0.118909862526E+00  0.126557083495E+00  0.134680762134E+00
  0.143308427029E+00  0.152468884574E+00  0.162192229524E+00  0.172509846216E+00  0.183454398515E+00
  0.195059806216E+00  0.207361205305E+00  0.220394889103E+00  0.234198226848E+00  0.248809555838E+00
  0.264268042644E+00  0.280613508329E+00  0.297886211935E+00  0.316126585695E+00  0.335374914666E+00
  0.355670952512E+00  0.377053464206E+00  0.399559685373E+00  0.423224686827E+00  0.448080631729E+00
  0.474155911506E+00  0.501474145519E+00  0.530053028210E+00  0.559903006383E+00  0.591025768330E+00
  0.623412525795E+00  0.657042069482E+00  0.691878579018E+00  0.727869169242E+00  0.764941156632E+00
  0.802999032882E+00  0.841921137503E+00  0.881556028245E+00  0.921718557635E+00  0.962185676588E+00
  0.100269200253E+01  0.104292521045E+01  0.108252133172E+01  0.112106007767E+01  0.115806034446E+01
  0.119297610193E+01  0.122519292407E+01  0.125402548028E+01  0.127871637665E+01  0.129843681116E+01
  0.131228958559E+01  0.131931509459E+01  0.131850098417E+01  0.130879622844E+01  0.128913040625E+01
  0.125843895228E+01  0.121569509690E+01  0.115994907415E+01  0.109037494849E+01  0.100633719942E+01
  0.907705952252E+00  0.794853932512E+00  0.668395691637E+00  0.000000000000E+00  0.000000000000E+00
  0.000000000000E+00  0.000000000000E+00  0.000000000000E+00  0.000000000000E+00  0.000000000000E+00
  0.000000000000E+00  0.000000000000E+00  0.000000000000E+00  0.000000000000E+00  0.000000000000E+00
  0.000000000000E+00  0.000000000000E+00  0.000000000000E+00  0.000000000000E+00  0.000000000000E+00
  0.000000000000E+00  0.000000000000E+00  0.000000000000E+00  0.000000000000E+00  0.000000000000E+00
  0.000000000000E+00  0.000000000000E+00  0.000000000000E+00  0.000000000000E+00  0.000000000000E+00
  0.000000000000E+00  0.000000000000E+00  0.000000000000E+00  0.000000000000E+00  0.000000000000E+00
  0.000000000000E+00  0.000000000000E+00  0.000000000000E+00  0.000000000000E+00  0.000000000000E+00
  0.000000000000E+00  0.000000000000E+00  0.000000000000E+00  0.000000000000E+00  0.000000000000E+00
  0.000000000000E+00  0.000000000000E+00
 ae wavefunction
  0.695032630905E-04  0.733048925531E-04  0.773068168988E-04  0.815199943103E-04  0.859559642707E-04
  0.906268794841E-04  0.955455395115E-04  0.100725426210E-03  0.106180741077E-03  0.111926444601E-03
  0.117978297731E-03  0.124352905587E-03  0.131067763519E-03  0.138141305668E-03  0.145592956135E-03
  0.153443182934E-03  0.161713554853E-03  0.170426801401E-03  0.179606875998E-03  0.189279022592E-03
  0.199469845886E-03  0.210207385366E-03  0.221521193350E-03  0.233442417258E-03  0.246003886348E-03
  0.259240203144E-03  0.273187839818E-03  0.287885239785E-03  0.303372924800E-03  0.319693607837E-03
  0.336892312067E-03  0.355016496262E-03  0.374116186953E-03  0.394244117711E-03  0.415455875915E-03
  0.437810057416E-03  0.461368429481E-03  0.486196102485E-03  0.512361710771E-03  0.539937603171E-03
  0.569000043679E-03  0.599629422791E-03  0.631910480063E-03  0.665932538439E-03  0.701789750964E-03
  0.739581360473E-03  0.779411972923E-03  0.821391845020E-03  0.865637186855E-03  0.912270480263E-03
  0.961420813667E-03  0.101322423418E-02  0.106782411780E-02  0.112537155850E-02  0.118602577708E-02
  0.124995455077E-02  0.131733466437E-02  0.138835238394E-02  0.146320395405E-02  0.154209611955E-02
  0.162524667283E-02  0.171288502774E-02  0.180525282112E-02  0.190260454304E-02  0.200520819684E-02
  0.211334599012E-02  0.222731505761E-02  0.234742821724E-02  0.247401476027E-02  0.260742127669E-02
  0.274801251688E-02  0.289617229050E-02  0.305230440367E-02  0.321683363520E-02  0.339020675284E-02
  0.357289357023E-02  0.376538804522E-02  0.396820942010E-02  0.418190340410E-02  0.440704339847E-02
  0.464423176412E-02  0.489410113173E-02  0.515731575389E-02  0.543457289858E-02  0.572660428315E-02
  0.603417754725E-02  0.635809776328E-02  0.669920898197E-02  0.705839581066E-02  0.743658502099E-02
  0.783474718235E-02  0.825389831652E-02  0.869510156864E-02  0.915946888818E-02  0.964816271351E-02
  0.101623976519E-01  0.107034421465E-01  0.112726201196E-01  0.118713125821E-01  0.125009591954E-01
  0.131630597719E-01  0.138591756989E-01  0.145909312680E-01  0.153600148904E-01  0.161681801774E-01
  0.170172468618E-01  0.179091015350E-01  0.188456981706E-01  0.198290584045E-01  0.208612715361E-01
  0.219444942157E-01  0.230809497750E-01  0.242729271611E-01  0.255227794224E-01  0.268329217002E-01
  0.282058286668E-01  0.296440313553E-01  0.311501133146E-01  0.327267060248E-01  0.343764834998E-01
  0.361021560012E-01  0.379064627813E-01  0.397921637718E-01  0.417620301249E-01  0.438188335150E-01
  0.459653340983E-01  0.482042670302E-01  0.505383274301E-01  0.529701536842E-01  0.555023089714E-01
  0.581372608964E-01  0.608773591100E-01  0.637248107992E-01  0.666816539266E-01  0.697497281014E-01
  0.729306429675E-01  0.762257439979E-01  0.796360755909E-01  0.831623413724E-01  0.868048616196E-01
  0.905635277348E-01  0.944377537145E-01  0.984264245798E-01  0.102527841757E+00  0.106739665427E+00
  0.111058853891E+00  0.115481600048E+00  0.120003265101E+00  0.124618309687E+00  0.129320222658E+00
  0.134101447804E+00  0.138953308888E+00  0.143865933425E+00  0.148828175710E+00  0.153827539704E+00
  0.158850102438E+00  0.163880438717E+00  0.168901547963E+00  0.173894784173E+00  0.178839790017E+00
  0.183714436279E+00  0.188494767951E+00  0.193154958472E+00  0.197667273832E+00  0.202002048471E+00
  0.206127675143E+00  0.210010611117E+00  0.213615403271E+00  0.216904734720E+00  0.219839495664E+00
  0.222378881154E+00  0.224480518446E+00  0.226100626530E+00  0.227194210387E+00  0.227715292405E+00
  0.227617183282E+00  0.226852794598E+00  0.225374995065E+00  0.223137012224E+00  0.220092881033E+00
  0.216197940401E+00  0.211409378220E+00  0.205686824833E+00  0.198992994166E+00  0.191294370914E+00
  0.182561941227E+00  0.172771963250E+00  0.161906772711E+00  0.149955617410E+00  0.136915513078E+00
  0.122792111553E+00  0.107600570653E+00  0.913664134933E-01  0.741263633293E-01  0.559291383967E-01
  0.368361895959E-01  0.169223624012E-01 -0.372353696899E-02 -0.249982921732E-01 -0.467839659445E-01
 -0.689477498957E-01 -0.913419965884E-01 -0.113804454520E+00 -0.136158725277E+00 -0.158214960778E+00
 -0.179770817903E+00 -0.200612688177E+00 -0.220517221211E+00 -0.239253160975E+00 -0.256583511872E+00
 -0.272268044644E+00 -0.286066139494E+00 -0.297739948586E+00 -0.307057847695E+00 -0.313798140809E+00
 -0.317752977950E+00 -0.318732440741E+00 -0.316568741232E+00 -0.311120469674E+00 -0.302276818677E+00
 -0.289961704729E+00 -0.274137702491E+00 -0.254809701991E+00 -0.232028193895E+00 -0.205892083949E+00
 -0.176550935222E+00 -0.144206536798E+00 -0.109113700656E+00 -0.715801953030E-01 -0.319657354973E-01
  0.932003804827E-02  0.518206363491E-01  0.950368804157E-01  0.138432129376E+00  0.181438519153E+00
  0.223464091449E+00  0.263900642477E+00  0.302132129241E+00  0.337543584813E+00  0.369530688855E+00
  0.397510216797E+00  0.420931269871E+00  0.439286650772E+00  0.452123647973E+00  0.459053893346E+00
  0.459762271616E+00  0.454014857679E+00  0.441665732875E+00  0.422662455187E+00  0.397049974462E+00
  0.364972861535E+00  0.326675807027E+00  0.282502408919E+00  0.232892303113E+00  0.178376707905E+00
  0.119572462058E+00  0.571746431964E-01 -0.805213738619E-02 -0.752836538721E-01 -0.143647070575E+00
 -0.212232880218E+00 -0.280107597957E+00 -0.346327007215E+00 -0.409949727504E+00 -0.470050846675E+00
 -0.525735324775E+00 -0.576150842463E+00 -0.620499758107E+00 -0.658049920551E+00 -0.688144288435E+00
 -0.710209572493E+00 -0.723764247772E+00 -0.728426109457E+00 -0.723919111312E+00 -0.710078922272E+00
 -0.686856604857E+00 -0.654320104387E+00 -0.612653522143E+00 -0.562154320774E+00 -0.503228675803E+00
 -0.436385214606E+00 -0.362227406786E+00 -0.281444897946E+00 -0.194804093819E+00 -0.103138302505E+00
 -0.733772516843E-02  0.916604471884E-01  0.192881612934E+00  0.295322843373E+00  0.397961346939E+00
  0.499762237254E+00  0.599685575673E+00  0.696692705135E+00  0.789751932944E+00  0.877843662459E+00
  0.959965112777E+00  0.103513479488E+01  0.110239694667E+01  0.116082615129E+01  0.120953237862E+01
  0.124766670389E+01  0.127442795407E+01  0.128907052967E+01  0.129091362758E+01  0.127935207209E+01
  0.125386891787E+01  0.121404995558E+01  0.115960019289E+01  0.109036233378E+01  0.100633719942E+01
  0.907705952252E+00  0.794853932512E+00  0.668395691637E+00  0.000000000000E+00  0.000000000000E+00
  0.000000000000E+00  0.000000000000E+00  0.000000000000E+00  0.000000000000E+00  0.000000000000E+00
  0.000000000000E+00  0.000000000000E+00  0.000000000000E+00  0.000000000000E+00  0.000000000000E+00
  0.000000000000E+00  0.000000000000E+00  0.000000000000E+00  0.000000000000E+00  0.000000000000E+00
  0.000000000000E+00  0.000000000000E+00  0.000000000000E+00  0.000000000000E+00  0.000000000000E+00
  0.000000000000E+00  0.000000000000E+00  0.000000000000E+00  0.000000000000E+00  0.000000000000E+00
  0.000000000000E+00  0.000000000000E+00  0.000000000000E+00  0.000000000000E+00  0.000000000000E+00
  0.000000000000E+00  0.000000000000E+00  0.000000000000E+00  0.000000000000E+00  0.000000000000E+00
  0.000000000000E+00  0.000000000000E+00  0.000000000000E+00  0.000000000000E+00  0.000000000000E+00
  0.000000000000E+00  0.000000000000E+00
 End of Dataset
  PAW_PBE Cu 22Jun2005                   
   11.0000000000000     
 parameters from PSCTR are:
   SHA256 =  0e71e558f37a4e8407882b4609ceaae59938afaad9ced71dfe8490308a0ab630 Cu/POTCAR
   COPYR  = (c) Copyright 22Jun2005 Georg Kresse
   COPYR  = This file is part of the software VASP. Any use, copying, and all other rights are regulated by the VASP license agreement.
   COPYR  = If you do not have a valid VASP license, you may not use, copy or distribute this file.
   VRHFIN =Cu: d10 p1
   LEXCH  = PE
   EATOM  =  1390.9808 eV,  102.2342 Ry

   TITEL  = PAW_PBE Cu 22Jun2005
   LULTRA =        F    use ultrasoft PP ?
   IUNSCR =        1    unscreen: 0-lin 1-nonlin 2-no
   RPACOR =    2.000    partial core radius
   POMASS =   63.546; ZVAL   =   11.000    mass and valenz
   RCORE  =    2.300    outmost cutoff radius
   RWIGS  =    2.200; RWIGS  =    1.164    wigner-seitz radius (au A)
   ENMAX  =  295.446; ENMIN  =  221.585 eV
   ICORE  =        3    local potential
   LCOR   =        T    correct aug charges
   LPAW   =        T    paw PP
   EAUG   =  586.980
   DEXC   =    0.000
   RMAX   =    2.344    core radius for proj-oper
   RAUG   =    1.300    factor for augmentation sphere
   RDEP   =    2.302    radius for radial grids
   RDEPT  =    1.771    core radius for aug-charge
 
   Atomic configuration
    9 entries
     n  l   j            E        occ.
     1  0  0.50     -8850.2468   2.0000
     2  0  0.50     -1062.3498   2.0000
     2  1  1.50      -916.8226   6.0000
     3  0  0.50      -114.6929   2.0000
     3  1  1.50       -72.1325   6.0000
     3  2  2.50        -5.0394  10.0000
     4  0  0.50        -4.6097   1.0000
     4  1  0.50        -4.0817   0.0000
     4  3  2.50        -1.3606   0.0000
   Description
     l       E           TYP  RCUT    TYP  RCUT
     2     -5.0393973     23  2.200
     2     10.8846608     23  2.200
     0     -4.6097109     23  2.200
     0      8.2520465     23  2.200
     1     -2.7211652     23  2.200
     1     21.7055443     23  2.200
     3      2.7211652     23  2.300
   Error from kinetic energy argument (eV)
   NDATA  =      100
   STEP   =   20.000   1.050
  127.      125.      125.      123.      123.      121.      119.      118.
  116.      114.      113.      111.      109.      106.      104.      101.
  98.2      95.5      92.6      88.3      85.3      82.3      77.8      74.7
  71.6      67.1      62.5      59.5      55.1      50.8      46.6      42.6
  38.7      35.0      31.5      28.2      24.2      21.4      18.0      15.7
  12.9      10.5      8.46      6.71      5.25      4.04      3.05      2.10
  1.52     0.979     0.608     0.404     0.234     0.133     0.701E-01 0.473E-01
 0.388E-01 0.367E-01 0.365E-01 0.348E-01 0.310E-01 0.255E-01 0.195E-01 0.132E-01
 0.902E-02 0.584E-02 0.423E-02 0.368E-02 0.359E-02 0.353E-02 0.322E-02 0.265E-02
 0.198E-02 0.138E-02 0.933E-03 0.749E-03 0.697E-03 0.691E-03 0.639E-03 0.533E-03
 0.389E-03 0.272E-03 0.210E-03 0.193E-03 0.190E-03 0.172E-03 0.136E-03 0.960E-04
 0.728E-04 0.670E-04 0.655E-04 0.579E-04 0.427E-04 0.316E-04 0.274E-04 0.269E-04
 0.235E-04 0.179E-04 0.134E-04 0.125E-04
END of PSCTR-controll parameters
 local part
   81.2582175088937     
  0.66484367E+02  0.66479899E+02  0.66475693E+02  0.66468688E+02  0.66458890E+02
  0.66446305E+02  0.66430931E+02  0.66412757E+02  0.66391760E+02  0.66367903E+02
  0.66341129E+02  0.66311364E+02  0.66278517E+02  0.66242478E+02  0.66203124E+02
  0.66160318E+02  0.66113912E+02  0.66063749E+02  0.66009662E+02  0.65951477E+02
  0.65889010E+02  0.65822069E+02  0.65750448E+02  0.65673933E+02  0.65592296E+02
  0.65505295E+02  0.65412675E+02  0.65314169E+02  0.65209494E+02  0.65098358E+02
  0.64980457E+02  0.64855476E+02  0.64723093E+02  0.64582977E+02  0.64434790E+02
  0.64278188E+02  0.64112821E+02  0.63938335E+02  0.63754372E+02  0.63560574E+02
  0.63356579E+02  0.63142029E+02  0.62916568E+02  0.62679845E+02  0.62431515E+02
  0.62171243E+02  0.61898705E+02  0.61613589E+02  0.61315598E+02  0.61004452E+02
  0.60679886E+02  0.60341660E+02  0.59989551E+02  0.59623362E+02  0.59242921E+02
  0.58848085E+02  0.58438737E+02  0.58014793E+02  0.57576202E+02  0.57122947E+02
  0.56655044E+02  0.56172548E+02  0.55675550E+02  0.55164180E+02  0.54638603E+02
  0.54099029E+02  0.53545703E+02  0.52978911E+02  0.52398981E+02  0.51806276E+02
  0.51201204E+02  0.50584208E+02  0.49955771E+02  0.49316413E+02  0.48666691E+02
  0.48007194E+02  0.47338546E+02  0.46661404E+02  0.45976451E+02  0.45284400E+02
  0.44585990E+02  0.43881980E+02  0.43173154E+02  0.42460312E+02  0.41744270E+02
  0.41025856E+02  0.40305911E+02  0.39585280E+02  0.38864813E+02  0.38145362E+02
  0.37427776E+02  0.36712899E+02  0.36001568E+02  0.35294607E+02  0.34592828E+02
  0.33897024E+02  0.33207971E+02  0.32526419E+02  0.31853097E+02  0.31188704E+02
  0.30533908E+02  0.29889346E+02  0.29255621E+02  0.28633297E+02  0.28022902E+02
  0.27424923E+02  0.26839805E+02  0.26267952E+02  0.25709723E+02  0.25165433E+02
  0.24635353E+02  0.24119707E+02  0.23618674E+02  0.23132388E+02  0.22660937E+02
  0.22204364E+02  0.21762668E+02  0.21335804E+02  0.20923685E+02  0.20526183E+02
  0.20143130E+02  0.19774320E+02  0.19419510E+02  0.19078422E+02  0.18750747E+02
  0.18436146E+02  0.18134248E+02  0.17844661E+02  0.17566966E+02  0.17300724E+02
  0.17045477E+02  0.16800754E+02  0.16566066E+02  0.16340916E+02  0.16124800E+02
  0.15917207E+02  0.15717622E+02  0.15525532E+02  0.15340425E+02  0.15161793E+02
  0.14989136E+02  0.14821959E+02  0.14659784E+02  0.14502140E+02  0.14348575E+02
  0.14198651E+02  0.14051949E+02  0.13908069E+02  0.13766632E+02  0.13627281E+02
  0.13489682E+02  0.13353524E+02  0.13218521E+02  0.13084412E+02  0.12950958E+02
  0.12817950E+02  0.12685201E+02  0.12552550E+02  0.12419860E+02  0.12287020E+02
  0.12153942E+02  0.12020561E+02  0.11886835E+02  0.11752744E+02  0.11618286E+02
  0.11483480E+02  0.11348365E+02  0.11212993E+02  0.11077435E+02  0.10941775E+02
  0.10806108E+02  0.10670544E+02  0.10535199E+02  0.10400201E+02  0.10265683E+02
  0.10131783E+02  0.99986448E+01  0.98664135E+01  0.97352358E+01  0.96052583E+01
  0.94766261E+01  0.93494816E+01  0.92239635E+01  0.91002054E+01  0.89783353E+01
  0.88584741E+01  0.87407351E+01  0.86252232E+01  0.85120342E+01  0.84012542E+01
  0.82929590E+01  0.81872140E+01  0.80840736E+01  0.79835811E+01  0.78857687E+01
  0.77906573E+01  0.76982568E+01  0.76085659E+01  0.75215729E+01  0.74372554E+01
  0.73555809E+01  0.72765076E+01  0.71999842E+01  0.71259509E+01  0.70543400E+01
  0.69850763E+01  0.69180778E+01  0.68532567E+01  0.67905199E+01  0.67297697E+01
  0.66709046E+01  0.66138203E+01  0.65584102E+01  0.65045661E+01  0.64521792E+01
  0.64011405E+01  0.63513417E+01  0.63026758E+01  0.62550378E+01  0.62083252E+01
  0.61624384E+01  0.61172817E+01  0.60727635E+01  0.60287964E+01  0.59852983E+01
  0.59421923E+01  0.58994066E+01  0.58568757E+01  0.58145397E+01  0.57723447E+01
  0.57302429E+01  0.56881926E+01  0.56461584E+01  0.56041107E+01  0.55620258E+01
  0.55198859E+01  0.54776786E+01  0.54353972E+01  0.53930398E+01  0.53506094E+01
  0.53081134E+01  0.52655635E+01  0.52229752E+01  0.51803672E+01  0.51377615E+01
  0.50951826E+01  0.50526572E+01  0.50102142E+01  0.49678838E+01  0.49256972E+01
  0.48836866E+01  0.48418844E+01  0.48003233E+01  0.47590354E+01  0.47180523E+01
  0.46774047E+01  0.46371221E+01  0.45972327E+01  0.45577629E+01  0.45187373E+01
  0.44801786E+01  0.44421072E+01  0.44045414E+01  0.43674972E+01  0.43309881E+01
  0.42950253E+01  0.42596174E+01  0.42247708E+01  0.41904892E+01  0.41567743E+01
  0.41236253E+01  0.40910394E+01  0.40590118E+01  0.40275357E+01  0.39966025E+01
  0.39662022E+01  0.39363233E+01  0.39069529E+01  0.38780773E+01  0.38496817E+01
  0.38217505E+01  0.37942676E+01  0.37672166E+01  0.37405807E+01  0.37143431E+01
  0.36884873E+01  0.36629968E+01  0.36378555E+01  0.36130480E+01  0.35885595E+01
  0.35643757E+01  0.35404833E+01  0.35168699E+01  0.34935238E+01  0.34704346E+01
  0.34475927E+01  0.34249894E+01  0.34026172E+01  0.33804696E+01  0.33585411E+01
  0.33368269E+01  0.33153235E+01  0.32940279E+01  0.32729380E+01  0.32520525E+01
  0.32313706E+01  0.32108919E+01  0.31906166E+01  0.31705451E+01  0.31506782E+01
  0.31310167E+01  0.31115614E+01  0.30923131E+01  0.30732727E+01  0.30544405E+01
  0.30358166E+01  0.30174010E+01  0.29991928E+01  0.29811910E+01  0.29633936E+01
  0.29457984E+01  0.29284022E+01  0.29112014E+01  0.28941915E+01  0.28773675E+01
  0.28607237E+01  0.28442536E+01  0.28279504E+01  0.28118063E+01  0.27958132E+01
  0.27799626E+01  0.27642454E+01  0.27486522E+01  0.27331733E+01  0.27177989E+01
  0.27025188E+01  0.26873231E+01  0.26722020E+01  0.26571455E+01  0.26421443E+01
  0.26271892E+01  0.26122716E+01  0.25973834E+01  0.25825169E+01  0.25676655E+01
  0.25528232E+01  0.25379846E+01  0.25231457E+01  0.25083031E+01  0.24934545E+01
  0.24785988E+01  0.24637357E+01  0.24488664E+01  0.24339928E+01  0.24191181E+01
  0.24042466E+01  0.23893837E+01  0.23745357E+01  0.23597099E+01  0.23449145E+01
  0.23301587E+01  0.23154523E+01  0.23008060E+01  0.22862310E+01  0.22717390E+01
  0.22573423E+01  0.22430534E+01  0.22288850E+01  0.22148501E+01  0.22009613E+01
  0.21872314E+01  0.21736728E+01  0.21602977E+01  0.21471175E+01  0.21341434E+01
  0.21213857E+01  0.21088540E+01  0.20965569E+01  0.20845022E+01  0.20726966E+01
  0.20611458E+01  0.20498540E+01  0.20388244E+01  0.20280590E+01  0.20175584E+01
  0.20073217E+01  0.19973469E+01  0.19876307E+01  0.19781682E+01  0.19689534E+01
  0.19599791E+01  0.19512367E+01  0.19427166E+01  0.19344079E+01  0.19262989E+01
  0.19183767E+01  0.19106277E+01  0.19030376E+01  0.18955911E+01  0.18882727E+01
  0.18810664E+01  0.18739557E+01  0.18669240E+01  0.18599547E+01  0.18530311E+01
  0.18461369E+01  0.18392557E+01  0.18323718E+01  0.18254700E+01  0.18185355E+01
  0.18115545E+01  0.18045138E+01  0.17974012E+01  0.17902056E+01  0.17829169E+01
  0.17755261E+01  0.17680256E+01  0.17604088E+01  0.17526707E+01  0.17448075E+01
  0.17368166E+01  0.17286970E+01  0.17204488E+01  0.17120738E+01  0.17035747E+01
  0.16949558E+01  0.16862225E+01  0.16773815E+01  0.16684406E+01  0.16594086E+01
  0.16502953E+01  0.16411115E+01  0.16318688E+01  0.16225794E+01  0.16132563E+01
  0.16039128E+01  0.15945627E+01  0.15852202E+01  0.15758995E+01  0.15666150E+01
  0.15573811E+01  0.15482119E+01  0.15391215E+01  0.15301234E+01  0.15212308E+01
  0.15124563E+01  0.15038118E+01  0.14953086E+01  0.14869571E+01  0.14787668E+01
  0.14707464E+01  0.14629034E+01  0.14552445E+01  0.14477752E+01  0.14404999E+01
  0.14334218E+01  0.14265432E+01  0.14198651E+01  0.14133873E+01  0.14071085E+01
  0.14010264E+01  0.13951376E+01  0.13894376E+01  0.13839210E+01  0.13785814E+01
  0.13734115E+01  0.13684033E+01  0.13635481E+01  0.13588363E+01  0.13542579E+01
  0.13498024E+01  0.13454588E+01  0.13412158E+01  0.13370619E+01  0.13329853E+01
  0.13289741E+01  0.13250167E+01  0.13211013E+01  0.13172163E+01  0.13133505E+01
  0.13094931E+01  0.13056333E+01  0.13017611E+01  0.12978671E+01  0.12939421E+01
  0.12899779E+01  0.12859668E+01  0.12819018E+01  0.12777768E+01  0.12735863E+01
  0.12693257E+01  0.12649912E+01  0.12605797E+01  0.12560891E+01  0.12515181E+01
  0.12468660E+01  0.12421330E+01  0.12373202E+01  0.12324291E+01  0.12274623E+01
  0.12224225E+01  0.12173137E+01  0.12121398E+01  0.12069058E+01  0.12016167E+01
  0.11962783E+01  0.11908964E+01  0.11854775E+01  0.11800280E+01  0.11745547E+01
  0.11690645E+01  0.11635642E+01  0.11580610E+01  0.11525617E+01  0.11470732E+01
  0.11416022E+01  0.11361554E+01  0.11307390E+01  0.11253592E+01  0.11200219E+01
  0.11147324E+01  0.11094960E+01  0.11043174E+01  0.10992009E+01  0.10941506E+01
  0.10891698E+01  0.10842618E+01  0.10794290E+01  0.10746737E+01  0.10699977E+01
  0.10654022E+01  0.10608881E+01  0.10564559E+01  0.10521057E+01  0.10478371E+01
  0.10436495E+01  0.10395419E+01  0.10355128E+01  0.10315606E+01  0.10276835E+01
  0.10238793E+01  0.10201456E+01  0.10164799E+01  0.10128795E+01  0.10093416E+01
  0.10058633E+01  0.10024416E+01  0.99907336E+00  0.99575559E+00  0.99248519E+00
  0.98925909E+00  0.98607428E+00  0.98292777E+00  0.97981666E+00  0.97673816E+00
  0.97368954E+00  0.97066820E+00  0.96767165E+00  0.96469754E+00  0.96174361E+00
  0.95880775E+00  0.95588797E+00  0.95298239E+00  0.95008927E+00  0.94720700E+00
  0.94433404E+00  0.94146902E+00  0.93861064E+00  0.93575770E+00  0.93290909E+00
  0.93006379E+00  0.92722084E+00  0.92437933E+00  0.92153841E+00  0.91869728E+00
  0.91585516E+00  0.91301130E+00  0.91016498E+00  0.90731550E+00  0.90446217E+00
  0.90160431E+00  0.89874125E+00  0.89587234E+00  0.89299693E+00  0.89011436E+00
  0.88722399E+00  0.88432521E+00  0.88141738E+00  0.87849993E+00  0.87557228E+00
  0.87263390E+00  0.86968431E+00  0.86672308E+00  0.86374985E+00  0.86076432E+00
  0.85776628E+00  0.85475561E+00  0.85173230E+00  0.84869641E+00  0.84564816E+00
  0.84258788E+00  0.83951601E+00  0.83643316E+00  0.83334007E+00  0.83023765E+00
  0.82712694E+00  0.82400918E+00  0.82088573E+00  0.81775812E+00  0.81462805E+00
  0.81149736E+00  0.80836802E+00  0.80524214E+00  0.80212199E+00  0.79900990E+00
  0.79590836E+00  0.79281992E+00  0.78974722E+00  0.78669298E+00  0.78365994E+00
  0.78065088E+00  0.77766859E+00  0.77471584E+00  0.77179536E+00  0.76890984E+00
  0.76606187E+00  0.76325395E+00  0.76048846E+00  0.75776763E+00  0.75509355E+00
  0.75246811E+00  0.74989301E+00  0.74736974E+00  0.74489955E+00  0.74248345E+00
  0.74012218E+00  0.73781621E+00  0.73556571E+00  0.73337060E+00  0.73123045E+00
  0.72914458E+00  0.72711198E+00  0.72513136E+00  0.72320114E+00  0.72131944E+00
  0.71948412E+00  0.71769277E+00  0.71594273E+00  0.71423109E+00  0.71255473E+00
  0.71091031E+00  0.70929434E+00  0.70770313E+00  0.70613290E+00  0.70457974E+00
  0.70303966E+00  0.70150863E+00  0.69998259E+00  0.69845750E+00  0.69692934E+00
  0.69539416E+00  0.69384810E+00  0.69228742E+00  0.69070853E+00  0.68910799E+00
  0.68748260E+00  0.68582935E+00  0.68414549E+00  0.68242855E+00  0.68067633E+00
  0.67888695E+00  0.67705884E+00  0.67519077E+00  0.67328184E+00  0.67133150E+00
  0.66933954E+00  0.66730612E+00  0.66523173E+00  0.66311724E+00  0.66096381E+00
  0.65877299E+00  0.65654663E+00  0.65428688E+00  0.65199620E+00  0.64967731E+00
  0.64733320E+00  0.64496709E+00  0.64258237E+00  0.64018266E+00  0.63777169E+00
  0.63535334E+00  0.63293158E+00  0.63051043E+00  0.62809398E+00  0.62568630E+00
  0.62329144E+00  0.62091342E+00  0.61855615E+00  0.61622344E+00  0.61391897E+00
  0.61164622E+00  0.60940850E+00  0.60720890E+00  0.60505027E+00  0.60293520E+00
  0.60086602E+00  0.59884474E+00  0.59687310E+00  0.59495250E+00  0.59308405E+00
  0.59126851E+00  0.58950631E+00  0.58779754E+00  0.58614196E+00  0.58453903E+00
  0.58298784E+00  0.58148720E+00  0.58003562E+00  0.57863132E+00  0.57727225E+00
  0.57595610E+00  0.57468036E+00  0.57344227E+00  0.57223891E+00  0.57106717E+00
  0.56992383E+00  0.56880551E+00  0.56770877E+00  0.56663009E+00  0.56556592E+00
  0.56451270E+00  0.56346688E+00  0.56242496E+00  0.56138350E+00  0.56033915E+00
  0.55928869E+00  0.55822903E+00  0.55715723E+00  0.55607052E+00  0.55496633E+00
  0.55384230E+00  0.55269628E+00  0.55152637E+00  0.55033091E+00  0.54910849E+00
  0.54785796E+00  0.54657844E+00  0.54526931E+00  0.54393023E+00  0.54256109E+00
  0.54116207E+00  0.53973357E+00  0.53827626E+00  0.53679101E+00  0.53527894E+00
  0.53374136E+00  0.53217979E+00  0.53059590E+00  0.52899156E+00  0.52736876E+00
  0.52572964E+00  0.52407641E+00  0.52241142E+00  0.52073704E+00  0.51905571E+00
  0.51736989E+00  0.51568206E+00  0.51399468E+00  0.51231019E+00  0.51063097E+00
  0.50895936E+00  0.50729761E+00  0.50564788E+00  0.50401223E+00  0.50239260E+00
  0.50079078E+00  0.49920844E+00  0.49764710E+00  0.49610809E+00  0.49459262E+00
  0.49310171E+00  0.49163619E+00  0.49019677E+00  0.48878395E+00  0.48739808E+00
  0.48603934E+00  0.48470774E+00  0.48340315E+00  0.48212528E+00  0.48087368E+00
  0.47964779E+00  0.47844690E+00  0.47727020E+00  0.47611677E+00  0.47498558E+00
  0.47387553E+00  0.47278545E+00  0.47171412E+00  0.47066025E+00  0.46962252E+00
  0.46859960E+00  0.46759012E+00  0.46659273E+00  0.46560607E+00  0.46462879E+00
  0.46365959E+00  0.46269717E+00  0.46174032E+00  0.46078783E+00  0.45983859E+00
  0.45889153E+00  0.45794565E+00  0.45700002E+00  0.45605380E+00  0.45510619E+00
  0.45415650E+00  0.45320411E+00  0.45224845E+00  0.45128905E+00  0.45032552E+00
  0.44935751E+00  0.44838479E+00  0.44740714E+00  0.44642445E+00  0.44543665E+00
  0.44444372E+00  0.44344569E+00  0.44244263E+00  0.44143465E+00  0.44042190E+00
  0.43940454E+00  0.43838277E+00  0.43735679E+00  0.43632684E+00  0.43529315E+00
  0.43425596E+00  0.43321551E+00  0.43217206E+00  0.43112585E+00  0.43007710E+00
  0.42902605E+00  0.42797290E+00  0.42691786E+00  0.42586111E+00  0.42480284E+00
  0.42374321E+00  0.42268238E+00  0.42162051E+00  0.42055775E+00  0.41949422E+00
  0.41843009E+00  0.41736547E+00  0.41630052E+00  0.41523538E+00  0.41417020E+00
  0.41310513E+00  0.41204036E+00  0.41097607E+00  0.40991248E+00  0.40884980E+00
  0.40778831E+00  0.40672827E+00  0.40567001E+00  0.40461386E+00  0.40356017E+00
  0.40250936E+00  0.40146183E+00  0.40041804E+00  0.39937845E+00  0.39834358E+00
  0.39731394E+00  0.39629008E+00  0.39527257E+00  0.39426198E+00  0.39325892E+00
  0.39226397E+00  0.39127774E+00  0.39030084E+00  0.38933384E+00  0.38837733E+00
  0.38743186E+00  0.38649795E+00  0.38557611E+00  0.38466680E+00  0.38377045E+00
  0.38288743E+00  0.38201806E+00  0.38116261E+00  0.38032130E+00  0.37949426E+00
  0.37868157E+00  0.37788321E+00  0.37709910E+00  0.37632908E+00  0.37557291E+00
  0.37483026E+00  0.37410073E+00  0.37338383E+00  0.37267900E+00  0.37198559E+00
  0.37130290E+00  0.37063013E+00  0.36996642E+00  0.36931086E+00  0.36866246E+00
  0.36802020E+00  0.36738299E+00  0.36674972E+00  0.36611923E+00  0.36549036E+00
  0.36486193E+00  0.36423274E+00  0.36360162E+00  0.36296739E+00  0.36232891E+00
  0.36168505E+00  0.36103473E+00  0.36037692E+00  0.35971065E+00  0.35903499E+00
  0.35834911E+00  0.35765226E+00  0.35694375E+00  0.35622302E+00  0.35548958E+00
  0.35474307E+00  0.35398322E+00  0.35320988E+00  0.35242300E+00  0.35162268E+00
  0.35080908E+00  0.34998253E+00  0.34914343E+00  0.34829232E+00  0.34742983E+00
  0.34655672E+00  0.34567382E+00  0.34478208E+00  0.34388252E+00  0.34297626E+00
  0.34206449E+00  0.34114844E+00  0.34022942E+00  0.33930877E+00  0.33838788E+00
  0.33746814E+00  0.33655097E+00  0.33563781E+00  0.33473005E+00  0.33382910E+00
  0.33293634E+00  0.33205309E+00  0.33118064E+00  0.33032020E+00  0.32947293E+00
  0.32863990E+00  0.32782209E+00  0.32702039E+00  0.32623560E+00  0.32546839E+00
  0.32471933E+00  0.32398887E+00  0.32327734E+00  0.32258496E+00  0.32191180E+00
  0.32125783E+00  0.32062288E+00  0.32000665E+00  0.31940873E+00  0.31882859E+00
  0.31826558E+00  0.31771893E+00  0.31718779E+00  0.31667120E+00  0.31616812E+00
  0.31567741E+00  0.31519789E+00  0.31472828E+00  0.31426729E+00  0.31381355E+00
  0.31336567E+00  0.31292224E+00  0.31248184E+00  0.31204304E+00  0.31160442E+00
  0.31116460E+00  0.31072222E+00  0.31027595E+00  0.30982453E+00  0.30936676E+00
  0.30890150E+00  0.30842770E+00  0.30794438E+00  0.30745066E+00  0.30694575E+00
  0.30642897E+00  0.30589975E+00  0.30535761E+00  0.30480221E+00  0.30423330E+00
 gradient corrections used for XC
           5
 core charge-density (partial)
  0.92540008E+00  0.92502136E+00  0.92388608E+00  0.92199686E+00  0.91935807E+00
  0.91597581E+00  0.91185787E+00  0.90701371E+00  0.90145445E+00  0.89519276E+00
  0.88824291E+00  0.88062061E+00  0.87234305E+00  0.86342877E+00  0.85389762E+00
  0.84377066E+00  0.83307015E+00  0.82181938E+00  0.81004267E+00  0.79776523E+00
  0.78501308E+00  0.77181300E+00  0.75819239E+00  0.74417921E+00  0.72980186E+00
  0.71508912E+00  0.70007005E+00  0.68477386E+00  0.66922988E+00  0.65346743E+00
  0.63751574E+00  0.62140389E+00  0.60516069E+00  0.58881462E+00  0.57239376E+00
  0.55592570E+00  0.53943749E+00  0.52295555E+00  0.50650564E+00  0.49011276E+00
  0.47380114E+00  0.45759417E+00  0.44151434E+00  0.42558323E+00  0.40982144E+00
  0.39424861E+00  0.37888333E+00  0.36374316E+00  0.34884460E+00  0.33420307E+00
  0.31983292E+00  0.30574738E+00  0.29195862E+00  0.27847769E+00  0.26531460E+00
  0.25247823E+00  0.23997643E+00  0.22781601E+00  0.21600272E+00  0.20454134E+00
  0.19343565E+00  0.18268847E+00  0.17230171E+00  0.16227637E+00  0.15261260E+00
  0.14330970E+00  0.13436621E+00  0.12577989E+00  0.11754779E+00  0.10966628E+00
  0.10213108E+00  0.94937346E-01  0.88079633E-01  0.81552000E-01  0.75348020E-01
  0.69460830E-01  0.63883168E-01  0.58607409E-01  0.53625613E-01  0.48929551E-01
  0.44510752E-01  0.40360534E-01  0.36470043E-01  0.32830283E-01  0.29432150E-01
  0.26266468E-01  0.23324013E-01  0.20595548E-01  0.18071845E-01  0.15743719E-01
  0.13602043E-01  0.11637779E-01  0.98419998E-02  0.82059031E-02  0.67208369E-02
  0.53783138E-02  0.41700278E-02  0.30878687E-02  0.21239350E-02  0.12705458E-02
  0.52025103E-03 -0.13415994E-03 -0.69965024E-03 -0.11829294E-02 -0.15904482E-02
 -0.19283947E-02 -0.22026915E-02 -0.24189937E-02 -0.25826888E-02 -0.26988963E-02
 -0.27724692E-02 -0.28079964E-02 -0.28098048E-02 -0.27819635E-02 -0.27282881E-02
 -0.26523451E-02 -0.25574582E-02 -0.24467140E-02 -0.23229684E-02 -0.21888538E-02
 -0.20467866E-02 -0.18989745E-02 -0.17474248E-02 -0.15939524E-02 -0.14401881E-02
 -0.12875874E-02 -0.11374389E-02 -0.99087288E-03 -0.84887031E-03 -0.71227119E-03
 -0.58178334E-03 -0.45799091E-03 -0.34136282E-03 -0.23226105E-03 -0.13094875E-03
 -0.37598228E-04  0.47701334E-04  0.12493637E-03  0.19416164E-03  0.25549323E-03
  0.30910180E-03  0.35520612E-03  0.39406691E-03  0.42598094E-03  0.45127548E-03
  0.47030302E-03  0.48343632E-03  0.49106377E-03  0.49358505E-03  0.49140710E-03
  0.48494041E-03  0.47459559E-03  0.46078024E-03  0.44389616E-03  0.42433671E-03
  0.40248463E-03  0.37870996E-03  0.35336831E-03  0.32679933E-03  0.29932545E-03
  0.27125084E-03  0.24286054E-03  0.21441982E-03  0.18617378E-03  0.15834701E-03
  0.13114353E-03  0.10474685E-03  0.79320086E-04  0.55006353E-04  0.31929158E-04
  0.10192949E-04 -0.10116249E-04 -0.28930123E-04 -0.46197277E-04 -0.61882387E-04
 -0.75965293E-04 -0.88440062E-04 -0.99314003E-04 -0.10860667E-03 -0.11634885E-03
 -0.12258152E-03 -0.12735486E-03 -0.13072718E-03 -0.13276396E-03 -0.13353684E-03
 -0.13312267E-03 -0.13160257E-03 -0.12906101E-03 -0.12558497E-03 -0.12126311E-03
 -0.11618497E-03 -0.11044028E-03 -0.10411820E-03 -0.97306749E-04 -0.90092174E-04
 -0.82558427E-04 -0.74786675E-04 -0.66854864E-04 -0.58837335E-04 -0.50804487E-04
 -0.42822496E-04 -0.34953074E-04 -0.27253284E-04 -0.19775392E-04 -0.12566769E-04
 -0.56698277E-05  0.87799066E-06  0.70442045E-05  0.12801237E-04  0.18126333E-04
  0.23001443E-04  0.27413081E-04  0.31352162E-04  0.34813809E-04  0.37797146E-04
  0.40305077E-04  0.42344042E-04  0.43923768E-04  0.45057009E-04  0.45759277E-04
  0.46048573E-04  0.45945107E-04  0.45471027E-04  0.44650140E-04  0.43507647E-04
  0.42069872E-04  0.40364004E-04  0.38417845E-04  0.36259569E-04  0.33917489E-04
  0.31419837E-04  0.28794555E-04  0.26069102E-04  0.23270274E-04  0.20424033E-04
  0.17555363E-04  0.14688127E-04  0.11844949E-04  0.90471086E-05  0.63144498E-05
  0.36653054E-05  0.11164373E-05 -0.13170097E-05 -0.36215395E-05 -0.57853229E-05
 -0.77982026E-05 -0.96516857E-05 -0.11338925E-04 -0.12854687E-04 -0.14195314E-04
 -0.15358674E-04 -0.16344099E-04 -0.17152321E-04 -0.17785398E-04 -0.18246636E-04
 -0.18540500E-04 -0.18672531E-04 -0.18649246E-04 -0.18478051E-04 -0.18167135E-04
 -0.17725377E-04 -0.17162247E-04 -0.16487704E-04 -0.15712104E-04 -0.14846097E-04
 -0.13900539E-04 -0.12886402E-04 -0.11814681E-04 -0.10696316E-04 -0.95421091E-05
 -0.83626521E-05 -0.71682559E-05 -0.59688859E-05 -0.47741031E-05 -0.35930105E-05
 -0.24342054E-05 -0.13057375E-05 -0.21507259E-06  0.83093705E-06  0.18260776E-05
  0.27647921E-05  0.36421933E-05  0.44540716E-05  0.51968969E-05  0.58678159E-05
  0.64646447E-05  0.69858562E-05  0.74305637E-05  0.77985005E-05  0.80899958E-05
  0.83059470E-05  0.84477890E-05  0.85174617E-05  0.85173737E-05  0.84503655E-05
  0.83196701E-05  0.81288728E-05  0.78818699E-05  0.75828272E-05  0.72361372E-05
  0.68463779E-05  0.64182707E-05  0.59566394E-05  0.54663699E-05  0.49523718E-05
  0.44195402E-05  0.38727199E-05  0.33166714E-05  0.27560386E-05  0.21953187E-05
  0.16388342E-05  0.10907080E-05  0.55483992E-06  0.34886356E-07 -0.46575741E-06
 -0.94397259E-06 -0.13969295E-05 -0.18220977E-05 -0.22172531E-05 -0.25804833E-05
 -0.29101899E-05 -0.32050882E-05 -0.34642056E-05 -0.36868764E-05 -0.38727359E-05
 -0.40217115E-05 -0.41340123E-05 -0.42101174E-05 -0.42507622E-05 -0.42569234E-05
 -0.42298027E-05 -0.41708101E-05 -0.40815451E-05 -0.39637786E-05 -0.38194328E-05
 -0.36505617E-05 -0.34593312E-05 -0.32479986E-05 -0.30188927E-05 -0.27743937E-05
 -0.25169141E-05 -0.22488787E-05 -0.19727072E-05 -0.16907952E-05 -0.14054983E-05
 -0.11191150E-05 -0.83387223E-06 -0.55191089E-06 -0.27527311E-06 -0.58903266E-08
  0.25442722E-06  0.50399980E-06  0.74128620E-06  0.96489048E-06  0.11735674E-05
  0.13662265E-05  0.15419351E-05  0.16999196E-05  0.18395664E-05  0.19604203E-05
  0.20621835E-05  0.21447115E-05  0.22080101E-05  0.22522295E-05  0.22776589E-05
  0.22847194E-05  0.22739569E-05  0.22460334E-05  0.22017188E-05  0.21418811E-05
  0.20674773E-05  0.19795429E-05  0.18791818E-05  0.17675559E-05  0.16458747E-05
  0.15153843E-05  0.13773575E-05  0.12330832E-05  0.10838562E-05  0.93096766E-06
  0.77569532E-06  0.61929454E-06  0.46298969E-06  0.30796596E-06  0.15536179E-06
  0.62618923E-08 -0.13830920E-06 -0.27739282E-06 -0.41010128E-06 -0.53562228E-06
 -0.65322259E-06 -0.76225109E-06 -0.86214107E-06 -0.95241186E-06 -0.10326698E-05
 -0.11026083E-05 -0.11620080E-05 -0.12107350E-05 -0.12487399E-05 -0.12760552E-05
 -0.12927929E-05 -0.12991412E-05 -0.12953603E-05 -0.12817793E-05 -0.12587908E-05
 -0.12268464E-05 -0.11864518E-05 -0.11381612E-05 -0.10825715E-05 -0.10203173E-05
 -0.95206448E-06 -0.87850439E-06 -0.80034820E-06 -0.71832087E-06 -0.63315540E-06
 -0.54558712E-06 -0.45634818E-06 -0.36616216E-06 -0.27573898E-06 -0.18576999E-06
 -0.96923335E-07 -0.98397156E-08  0.74871653E-07  0.15663665E-06  0.23491951E-06
  0.30922574E-06  0.37910463E-06  0.44415133E-06  0.50400864E-06  0.55836823E-06
  0.60697167E-06  0.64961086E-06  0.68612824E-06  0.71641652E-06  0.74041809E-06
  0.75812409E-06  0.76957309E-06  0.77484953E-06  0.77408179E-06  0.76744010E-06
  0.75513403E-06  0.73740996E-06  0.71454815E-06  0.68685981E-06  0.65468390E-06
  0.61838386E-06  0.57834429E-06  0.53496746E-06  0.48866990E-06  0.43987886E-06
  0.38902891E-06  0.33655846E-06  0.28290645E-06  0.22850901E-06  0.17379637E-06
  0.11918972E-06  0.65098428E-07  0.11917211E-07 -0.39976353E-07 -0.90224207E-07
 -0.13848996E-06 -0.18446082E-06 -0.22784931E-06 -0.26839473E-06 -0.30586444E-06
 -0.34005481E-06 -0.37079201E-06 -0.39793255E-06 -0.42136354E-06 -0.44100275E-06
 -0.45679844E-06 -0.46872896E-06 -0.47680215E-06 -0.48105454E-06 -0.48155032E-06
 -0.47838019E-06 -0.47165999E-06 -0.46152925E-06 -0.44814949E-06 -0.43170252E-06
 -0.41238857E-06 -0.39042433E-06 -0.36604091E-06 -0.33948182E-06 -0.31100079E-06
 -0.28085966E-06 -0.24932625E-06 -0.21667217E-06 -0.18317077E-06 -0.14909503E-06
 -0.11471552E-06 -0.80298505E-07 -0.46104023E-07 -0.12384127E-07  0.20618799E-07
  0.52673609E-07  0.83561835E-07  0.11307901E-06  0.14103584E-06  0.16725925E-06
  0.19159329E-06  0.21389987E-06  0.23405935E-06  0.25197102E-06  0.26755335E-06
  0.28074420E-06  0.29150075E-06  0.29979941E-06  0.30563554E-06  0.30902299E-06
  0.30999363E-06  0.30859663E-06  0.30489770E-06  0.29897826E-06  0.29093441E-06
  0.28087588E-06  0.26892495E-06  0.25521516E-06  0.23989017E-06  0.22310234E-06
  0.20501148E-06  0.18578345E-06  0.16558882E-06  0.14460146E-06  0.12299718E-06
  0.10095241E-06  0.78642825E-07  0.56242100E-07  0.33920643E-07  0.11844408E-07
 -0.98262352E-08 -0.30937571E-07 -0.51343524E-07 -0.70906577E-07 -0.89498597E-07
 -0.10700158E-06 -0.12330829E-06 -0.13832284E-06 -0.15196111E-06 -0.16415115E-06
 -0.17483342E-06 -0.18396098E-06 -0.19149952E-06 -0.19742737E-06 -0.20173537E-06
 -0.20442666E-06 -0.20551639E-06 -0.20503134E-06 -0.20300947E-06 -0.19949940E-06
 -0.19455977E-06 -0.18825868E-06 -0.18067287E-06 -0.17188704E-06 -0.16199301E-06
 -0.15108890E-06 -0.13927825E-06 -0.12666916E-06 -0.11337335E-06 -0.99505284E-07
 -0.85181255E-07 -0.70518468E-07 -0.55634163E-07 -0.40644738E-07 -0.25664902E-07
 -0.10806860E-07  0.38204683E-08  0.18112187E-07  0.31968121E-07  0.45293457E-07
  0.57999338E-07  0.70003396E-07  0.81230228E-07  0.91611812E-07  0.10108786E-06
  0.10960609E-06  0.11712247E-06  0.12360135E-06  0.12901559E-06  0.13334652E-06
  0.13658398E-06  0.13872616E-06  0.13977947E-06  0.13975832E-06  0.13868484E-06
  0.13658856E-06  0.13350605E-06  0.12948048E-06  0.12456120E-06  0.11880321E-06
  0.11226666E-06  0.10501629E-06  0.97120856E-07  0.88652544E-07  0.79686357E-07
  0.70299502E-07  0.60570775E-07  0.50579942E-07  0.40407128E-07  0.30132211E-07
  0.19834238E-07  0.95908525E-08 -0.52225660E-09 -0.10431875E-07 -0.20067758E-07
 -0.29363097E-07 -0.38254944E-07 -0.46684604E-07 -0.54597989E-07 -0.61945924E-07
 -0.68684423E-07 -0.74774906E-07 -0.80184387E-07 -0.84885602E-07 -0.88857107E-07
 -0.92083318E-07 -0.94554516E-07 -0.96266802E-07 -0.97222017E-07 -0.97427613E-07
 -0.96896490E-07 -0.95646799E-07 -0.93701698E-07 -0.91089089E-07 -0.87841321E-07
 -0.83994857E-07 -0.79589931E-07 -0.74670174E-07 -0.69282225E-07 -0.63475328E-07
 -0.57300915E-07 -0.50812184E-07 -0.44063668E-07 -0.37110808E-07 -0.30009520E-07
 -0.22815773E-07 -0.15585171E-07 -0.83725481E-08 -0.12315742E-08  0.57856210E-08
  0.12628807E-07  0.19249989E-07  0.25603725E-07  0.31647413E-07  0.37341557E-07
  0.42649999E-07  0.47540131E-07  0.51983068E-07  0.55953792E-07  0.59431271E-07
  0.62398537E-07  0.64842741E-07  0.66755171E-07  0.68131239E-07  0.68970442E-07
  0.69276289E-07  0.69056205E-07  0.68321398E-07  0.67086712E-07  0.65370450E-07
  0.63194173E-07  0.60582482E-07  0.57562778E-07  0.54165012E-07  0.50421413E-07
  0.46366208E-07  0.42035332E-07  0.37466130E-07  0.32697056E-07  0.27767363E-07
  0.22716804E-07  0.17585319E-07  0.12412744E-07  0.72385094E-08  0.21013582E-08
 -0.29609304E-08 -0.79118047E-08 -0.12716191E-07 -0.17340725E-07 -0.21753976E-07
 -0.25926638E-07 -0.29831717E-07 -0.33444686E-07 -0.36743628E-07 -0.39709348E-07
 -0.42325474E-07 -0.44578525E-07 -0.46457960E-07 -0.47956211E-07 -0.49068678E-07
 -0.49793721E-07 -0.50132616E-07 -0.50089493E-07 -0.49671262E-07 -0.48887508E-07
 -0.47750375E-07 -0.46274436E-07 -0.44476534E-07 -0.42375628E-07 -0.39992608E-07
 -0.37350110E-07 -0.34472318E-07 -0.31384757E-07 -0.28114082E-07 -0.24687857E-07
 -0.21134341E-07 -0.17482258E-07 -0.13760584E-07 -0.99983218E-08 -0.62242867E-08
 -0.24668963E-08  0.12460347E-08  0.48874908E-08  0.84314430E-08  0.11853026E-07
  0.15128702E-07  0.18236416E-07  0.21155732E-07  0.23867959E-07  0.26356262E-07
  0.28605755E-07  0.30603576E-07  0.32338957E-07  0.33803260E-07  0.34990013E-07
  0.35894919E-07  0.36515852E-07  0.36852836E-07  0.36908014E-07  0.36685592E-07
  0.36191776E-07  0.35434694E-07  0.34424302E-07  0.33172281E-07  0.31691923E-07
  0.29998004E-07  0.28106654E-07  0.26035208E-07  0.23802066E-07  0.21426532E-07
  0.18928659E-07  0.16329089E-07  0.13648888E-07  0.10909384E-07  0.81320014E-08
  0.53381056E-08  0.25488401E-08 -0.21502452E-09 -0.29332395E-08 -0.55862200E-08
 -0.81551800E-08 -0.10622259E-07 -0.12970641E-07 -0.15184660E-07 -0.17249902E-07
 -0.19153289E-07 -0.20883157E-07 -0.22429319E-07 -0.23783118E-07 -0.24937467E-07
 -0.25886877E-07 -0.26627473E-07 -0.27156995E-07 -0.27474792E-07 -0.27581803E-07
 -0.27480519E-07 -0.27174948E-07 -0.26670555E-07 -0.25974203E-07 -0.25094076E-07
 -0.24039602E-07 -0.22821362E-07 -0.21450992E-07 -0.19941081E-07 -0.18305064E-07
 -0.16557107E-07 -0.14711993E-07 -0.12784998E-07 -0.10791777E-07 -0.87482347E-08
 -0.66704079E-08 -0.45743425E-08 -0.24759750E-08 -0.39101481E-09  0.16651681E-08
  0.36776527E-08  0.56320709E-08  0.75147060E-08  0.93125842E-08  0.11013560E-07
  0.12606395E-07  0.14080826E-07  0.15427625E-07  0.16638659E-07  0.17706924E-07
  0.18626588E-07  0.19393014E-07  0.20002775E-07  0.20453664E-07  0.20744689E-07
  0.20876065E-07  0.20849193E-07  0.20666631E-07  0.20332061E-07  0.19850241E-07
  0.19226955E-07  0.18468955E-07  0.17583898E-07  0.16580272E-07  0.15467324E-07
  0.14254978E-07  0.12953753E-07  0.11574673E-07  0.10129182E-07  0.86290485E-08
  0.70862766E-08  0.55130108E-08  0.39214453E-08  0.23237320E-08  0.73189087E-09
 -0.84227729E-09 -0.23872755E-08 -0.38919915E-08 -0.53457750E-08 -0.67385095E-08
 -0.80606804E-08 -0.93034366E-08 -0.10458647E-07 -0.11518949E-07 -0.12477796E-07
 -0.13329489E-07 -0.14069209E-07 -0.14693044E-07 -0.15197998E-07 -0.15582005E-07
 -0.15843929E-07 -0.15983559E-07 -0.16001601E-07 -0.15899654E-07 -0.15680188E-07
 -0.15346514E-07 -0.14902746E-07 -0.14353760E-07 -0.13705146E-07 -0.12963159E-07
 -0.12134657E-07 -0.11227048E-07 -0.10248224E-07 -0.92064968E-08 -0.81105276E-08
 -0.69692611E-08 -0.57918530E-08 -0.45875999E-08 -0.33658675E-08 -0.21360205E-08
 -0.90735304E-09  0.31097979E-09  0.15100277E-08  0.26811088E-08  0.38158708E-08
  0.49063480E-08  0.59450155E-08  0.69248387E-08  0.78393190E-08  0.86825345E-08
  0.94491761E-08  0.10134579E-07  0.10734746E-07  0.11246372E-07  0.11666857E-07
  0.11994314E-07  0.12227576E-07  0.12366193E-07  0.12410427E-07  0.12361238E-07
  0.12220270E-07  0.11989827E-07  0.11672850E-07  0.11272881E-07  0.10794035E-07
  0.10240958E-07  0.96187832E-08  0.89330920E-08  0.81898615E-08  0.73954167E-08
  0.65563784E-08  0.56796102E-08  0.47721639E-08  0.38412248E-08  0.28940563E-08
  0.19379451E-08  0.98014649E-09  0.27830856E-10 -0.91196829E-09 -0.18324049E-08
 -0.27268687E-08 -0.35890313E-08 -0.44128892E-08 -0.51928044E-08 -0.59235412E-08
 -0.66002997E-08 -0.72187461E-08 -0.77750381E-08 -0.82658476E-08 -0.86883779E-08
 -0.90403781E-08 -0.93201523E-08 -0.95265648E-08 -0.96590413E-08 -0.97175656E-08
 -0.97026728E-08 -0.96154375E-08 -0.94574589E-08 -0.92308422E-08 -0.89381762E-08
 -0.85825078E-08 -0.81673132E-08 -0.76964664E-08 -0.71742055E-08 -0.66050964E-08
 -0.59939942E-08 -0.53460037E-08 -0.46664382E-08 -0.39607772E-08 -0.32346236E-08
 -0.24936601E-08 -0.17436065E-08 -0.99017632E-09 -0.23903451E-09  0.50424405E-09
  0.12342148E-08  0.19456024E-08  0.26333376E-08  0.32925924E-08  0.39188127E-08
  0.45077489E-08  0.50554833E-08  0.55584551E-08  0.60134825E-08  0.64177812E-08
  0.67689800E-08  0.70651336E-08  0.73047312E-08  0.74867024E-08  0.76104195E-08
  0.76756966E-08  0.76827854E-08  0.76323678E-08  0.75255451E-08  0.73638251E-08
  0.71491051E-08  0.68836535E-08  0.65700876E-08  0.62113506E-08  0.58106846E-08
  0.53716038E-08  0.48978642E-08  0.43934329E-08  0.38624559E-08  0.33092255E-08
  0.27381457E-08  0.21536988E-08  0.15604108E-08  0.96281735E-09  0.36542964E-09
 -0.22729853E-09 -0.81100329E-09 -0.13814420E-08 -0.19345234E-08 -0.24663358E-08
 -0.29731745E-08 -0.34515663E-08 -0.38982925E-08 -0.43104101E-08 -0.46852698E-08
 -0.50205324E-08 -0.53141823E-08 -0.55645383E-08 -0.57702624E-08 -0.59303652E-08
 -0.60442092E-08 -0.61115091E-08 -0.61323297E-08 -0.61070811E-08 -0.60365117E-08
 -0.59216979E-08 -0.57640328E-08 -0.55652116E-08 -0.53272155E-08 -0.50522932E-08
 -0.47429416E-08 -0.44018835E-08 -0.40320449E-08 -0.36365310E-08 -0.32186007E-08
 -0.27816408E-08 -0.23291387E-08 -0.18646559E-08 -0.13918005E-08 -0.91419943E-09
 kinetic energy density (partial)
  0.10717645E+03  0.10713317E+03  0.10700343E+03  0.10678754E+03  0.10648597E+03
  0.10609941E+03  0.10562873E+03  0.10507501E+03  0.10443948E+03  0.10372357E+03
  0.10292888E+03  0.10205717E+03  0.10111039E+03  0.10009060E+03  0.99000050E+02
  0.97841102E+02  0.96616262E+02  0.95328154E+02  0.93979517E+02  0.92573191E+02
  0.91112115E+02  0.89599307E+02  0.88037864E+02  0.86430944E+02  0.84781759E+02
  0.83093567E+02  0.81369656E+02  0.79613341E+02  0.77827947E+02  0.76016803E+02
  0.74183232E+02  0.72330541E+02  0.70462012E+02  0.68580890E+02  0.66690381E+02
  0.64793636E+02  0.62893750E+02  0.60993749E+02  0.59096587E+02  0.57205136E+02
  0.55322181E+02  0.53450417E+02  0.51592439E+02  0.49750741E+02  0.47927709E+02
  0.46125620E+02  0.44346636E+02  0.42592803E+02  0.40866047E+02  0.39168176E+02
  0.37500872E+02  0.35865697E+02  0.34264089E+02  0.32697362E+02  0.31166707E+02
  0.29673192E+02  0.28217766E+02  0.26801257E+02  0.25424375E+02  0.24087716E+02
  0.22791762E+02  0.21536886E+02  0.20323355E+02  0.19151328E+02  0.18020870E+02
  0.16931947E+02  0.15884430E+02  0.14878107E+02  0.13912678E+02  0.12987766E+02
  0.12102916E+02  0.11257604E+02  0.10451239E+02  0.96831689E+01  0.89526836E+01
  0.82590207E+01  0.76013696E+01  0.69788761E+01  0.63906469E+01  0.58357536E+01
  0.53132374E+01  0.48221132E+01  0.43613735E+01  0.39299926E+01  0.35269303E+01
  0.31511356E+01  0.28015505E+01  0.24771129E+01  0.21767607E+01  0.18994340E+01
  0.16440787E+01  0.14096491E+01  0.11951104E+01  0.99944122E+00  0.82163602E+00
  0.66070699E+00  0.51568613E+00  0.38562700E+00  0.26960631E+00  0.16672537E+00
  0.76111399E-01 -0.30813894E-02 -0.71670768E-01 -0.13044569E+00 -0.18016562E+00
 -0.22155997E+00 -0.25532767E+00 -0.28213696E+00 -0.30262516E+00 -0.31739865E+00
 -0.32703295E+00 -0.33207289E+00 -0.33303287E+00 -0.33039724E+00 -0.32462073E+00
 -0.31612898E+00 -0.30531915E+00 -0.29256057E+00 -0.27819550E+00 -0.26253985E+00
 -0.24588404E+00 -0.22849389E+00 -0.21061148E+00 -0.19245611E+00 -0.17422524E+00
 -0.15609549E+00 -0.13822363E+00 -0.12074757E+00 -0.10378736E+00 -0.87446242E-01
 -0.71811609E-01 -0.56956029E-01 -0.42938226E-01 -0.29804059E-01 -0.17587475E-01
 -0.63114485E-02  0.40111035E-02  0.13376432E-01  0.21789095E-01  0.29261118E-01
  0.35811200E-01  0.41463933E-01  0.46249071E-01  0.50200826E-01  0.53357196E-01
  0.55759335E-01  0.57450958E-01  0.58477780E-01  0.58886991E-01  0.58726770E-01
  0.58045834E-01  0.56893022E-01  0.55316914E-01  0.53365486E-01  0.51085796E-01
  0.48523705E-01  0.45723627E-01  0.42728314E-01  0.39578667E-01  0.36313573E-01
  0.32969779E-01  0.29581777E-01  0.26181728E-01  0.22799396E-01  0.19462114E-01
  0.16194765E-01  0.13019780E-01  0.99571587E-02  0.70245001E-02  0.42370523E-02
  0.16077726E-02 -0.85260006E-03 -0.31354622E-02 -0.52342539E-02 -0.71443595E-02
 -0.88630013E-02 -0.10389128E-01 -0.11723299E-01 -0.12867566E-01 -0.13825352E-01
 -0.14601326E-01 -0.15201287E-01 -0.15632034E-01 -0.15901251E-01 -0.16017387E-01
 -0.15989537E-01 -0.15827334E-01 -0.15540835E-01 -0.15140420E-01 -0.14636691E-01
 -0.14040377E-01 -0.13362242E-01 -0.12613006E-01 -0.11803262E-01 -0.10943408E-01
 -0.10043577E-01 -0.91135819E-02 -0.81628564E-02 -0.72004111E-02 -0.62347911E-02
 -0.52740401E-02 -0.43256707E-02 -0.33966411E-02 -0.24933357E-02 -0.16215524E-02
 -0.78649442E-03  0.72333002E-05  0.75562270E-03  0.14552573E-02  0.21033026E-02
  0.26974934E-02  0.32361171E-02  0.37179943E-02  0.41424567E-02  0.45093224E-02
  0.48188693E-02  0.50718067E-02  0.52692451E-02  0.54126652E-02  0.55038857E-02
  0.55450306E-02  0.55384961E-02  0.54869174E-02  0.53931357E-02  0.52601649E-02
  0.50911601E-02  0.48893858E-02  0.46581852E-02  0.44009510E-02  0.41210972E-02
  0.38220320E-02  0.35071327E-02  0.31797218E-02  0.28430450E-02  0.25002506E-02
  0.21543711E-02  0.18083065E-02  0.14648090E-02  0.11264705E-02  0.79571087E-03
  0.47476868E-03  0.16569382E-03 -0.12965852E-03 -0.40963187E-03 -0.67277096E-03
 -0.91782255E-03 -0.11437348E-02 -0.13496549E-02 -0.15349263E-02 -0.16990831E-02
 -0.18418448E-02 -0.19631092E-02 -0.20629443E-02 -0.21415798E-02 -0.21993975E-02
 -0.22369210E-02 -0.22548051E-02 -0.22538246E-02 -0.22348628E-02 -0.21988998E-02
 -0.21470004E-02 -0.20803023E-02 -0.20000043E-02 -0.19073539E-02 -0.18036365E-02
 -0.16901634E-02 -0.15682608E-02 -0.14392595E-02 -0.13044847E-02 -0.11652459E-02
 -0.10228281E-02 -0.87848345E-03 -0.73342284E-03 -0.58880912E-03 -0.44575034E-03
 -0.30529386E-03 -0.16842126E-03 -0.36043858E-04  0.91001068E-04  0.21195327E-03
  0.32613187E-03  0.43293706E-03  0.53185103E-03  0.62243835E-03  0.70434568E-03
  0.77730091E-03  0.84111174E-03  0.89566372E-03  0.94091781E-03  0.97690753E-03
  0.10037356E-02  0.10215704E-02  0.10306417E-02  0.10312367E-02  0.10236955E-02
  0.10084060E-02  0.98579939E-03  0.95634509E-03  0.92054557E-03  0.87893133E-03
  0.83205579E-03  0.78049019E-03  0.72481862E-03  0.66563316E-03  0.60352909E-03
  0.53910035E-03  0.47293513E-03  0.40561169E-03  0.33769448E-03  0.26973042E-03
  0.20224548E-03  0.13574165E-03  0.70694013E-04  0.75483399E-05 -0.53281177E-04
 -0.11141377E-03 -0.16650367E-03 -0.21824134E-03 -0.26635441E-03 -0.31060830E-03
 -0.35080653E-03 -0.38679076E-03 -0.41844052E-03 -0.44567271E-03 -0.46844080E-03
 -0.48673382E-03 -0.50057512E-03 -0.51002093E-03 -0.51515872E-03 -0.51610537E-03
 -0.51300526E-03 -0.50602817E-03 -0.49536706E-03 -0.48123584E-03 -0.46386694E-03
 -0.44350896E-03 -0.42042423E-03 -0.39488633E-03 -0.36717766E-03 -0.33758701E-03
 -0.30640721E-03 -0.27393274E-03 -0.24045754E-03 -0.20627277E-03 -0.17166481E-03
 -0.13691323E-03 -0.10228895E-03 -0.68052560E-04 -0.34452695E-04 -0.17246110E-05
  0.29911108E-04  0.60249694E-04  0.89103172E-04  0.11630119E-03  0.14169170E-03
  0.16514144E-03  0.18653630E-03  0.20578156E-03  0.22280188E-03  0.23754125E-03
  0.24996276E-03  0.26004820E-03  0.26779762E-03  0.27322867E-03  0.27637592E-03
  0.27729005E-03  0.27603690E-03  0.27269651E-03  0.26736204E-03  0.26013866E-03
  0.25114237E-03  0.24049878E-03  0.22834186E-03  0.21481267E-03  0.20005808E-03
  0.18422950E-03  0.16748159E-03  0.14997100E-03  0.13185516E-03  0.11329107E-03
  0.94434136E-04  0.75437068E-04  0.56448836E-04  0.37613665E-04  0.19070119E-04
  0.95023861E-06 -0.16621233E-04 -0.33527555E-04 -0.49660609E-04 -0.64921437E-04
 -0.79220696E-04 -0.92479023E-04 -0.10462733E-03 -0.11560698E-03 -0.12536993E-03
 -0.13387875E-03 -0.14110659E-03 -0.14703704E-03 -0.15166396E-03 -0.15499118E-03
 -0.15703221E-03 -0.15780983E-03 -0.15735563E-03 -0.15570955E-03 -0.15291926E-03
 -0.14903967E-03 -0.14413224E-03 -0.13826433E-03 -0.13150857E-03 -0.12394210E-03
 -0.11564591E-03 -0.10670413E-03 -0.97203264E-04 -0.87231513E-04 -0.76878062E-04
 -0.66232383E-04 -0.55383566E-04 -0.44419658E-04 -0.33427046E-04 -0.22489859E-04
 -0.11689404E-04 -0.11036419E-05  0.91932933E-05  0.19131542E-04  0.28645916E-04
  0.37676252E-04  0.46167714E-04  0.54071056E-04  0.61342829E-04  0.67945542E-04
  0.73847773E-04  0.79024235E-04  0.83455791E-04  0.87129427E-04  0.90038180E-04
  0.92181019E-04  0.93562691E-04  0.94193526E-04  0.94089207E-04  0.93270505E-04
  0.91762986E-04  0.89596689E-04  0.86805784E-04  0.83428199E-04  0.79505241E-04
  0.75081196E-04  0.70202918E-04  0.64919409E-04  0.59281403E-04  0.53340935E-04
  0.47150923E-04  0.40764750E-04  0.34235853E-04  0.27617325E-04  0.20961528E-04
  0.14319724E-04  0.77417216E-05  0.12755449E-05 -0.50328790E-05 -0.11140006E-04
 -0.17004935E-04 -0.22589646E-04 -0.27859205E-04 -0.32781949E-04 -0.37329628E-04
 -0.41477535E-04 -0.45204596E-04 -0.48493429E-04 -0.51330387E-04 -0.53705553E-04
 -0.55612729E-04 -0.57049378E-04 -0.58016555E-04 -0.58518807E-04 -0.58564049E-04
 -0.58163420E-04 -0.57331121E-04 -0.56084229E-04 -0.54442499E-04 -0.52428150E-04
 -0.50065637E-04 -0.47381414E-04 -0.44403688E-04 -0.41162162E-04 -0.37687782E-04
 -0.34012472E-04 -0.30168873E-04 -0.26190085E-04 -0.22109404E-04 -0.17960077E-04
 -0.13775048E-04 -0.95867272E-05 -0.54267581E-05 -0.13258031E-05  0.26866613E-05
  0.65825350E-05  0.10335270E-04  0.13920029E-04  0.17313833E-04  0.20495680E-04
  0.23446664E-04  0.26150053E-04  0.28591374E-04  0.30758456E-04  0.32641473E-04
  0.34232957E-04  0.35527800E-04  0.36523234E-04  0.37218798E-04  0.37616285E-04
  0.37719678E-04  0.37535068E-04  0.37070556E-04  0.36336152E-04  0.35343649E-04
  0.34106498E-04  0.32639670E-04  0.30959506E-04  0.29083564E-04  0.27030463E-04
  0.24819720E-04  0.22471579E-04  0.20006850E-04  0.17446736E-04  0.14812673E-04
  0.12126155E-04  0.94085842E-05  0.66811054E-05  0.39644587E-05  0.12788333E-05
 -0.13562701E-05 -0.39221686E-05 -0.64011177E-05 -0.87764221E-05 -0.11032536E-04
 -0.13155154E-04 -0.15131288E-04 -0.16949335E-04 -0.18599133E-04 -0.20072004E-04
 -0.21360786E-04 -0.22459851E-04 -0.23365116E-04 -0.24074034E-04 -0.24585587E-04
 -0.24900250E-04 -0.25019962E-04 -0.24948079E-04 -0.24689313E-04 -0.24249671E-04
 -0.23636383E-04 -0.22857818E-04 -0.21923402E-04 -0.20843517E-04 -0.19629413E-04
 -0.18293098E-04 -0.16847235E-04 -0.15305034E-04 -0.13680141E-04 -0.11986527E-04
 -0.10238381E-04 -0.84499930E-05 -0.66356509E-05 -0.48095323E-05 -0.29856019E-05
 -0.11775119E-05  0.60149309E-06  0.23386652E-05  0.40218382E-05  0.56395055E-05
  0.71808919E-05  0.86360181E-05  0.99957584E-05  0.11251891E-04  0.12397139E-04
  0.13425206E-04  0.14330804E-04  0.15109666E-04  0.15758564E-04  0.16275305E-04
  0.16658732E-04  0.16908704E-04  0.17026083E-04  0.17012703E-04  0.16871336E-04
  0.16605656E-04  0.16220189E-04  0.15720263E-04  0.15111954E-04  0.14402023E-04
  0.13597854E-04  0.12707384E-04  0.11739034E-04  0.10701640E-04  0.96043706E-05
  0.84566608E-05  0.72681314E-05  0.60485150E-05  0.48075820E-05  0.35550663E-05
  0.23005942E-05  0.10536148E-05 -0.17666681E-06 -0.13813530E-05 -0.25519137E-05
 -0.36802427E-05 -0.47587090E-05 -0.57802050E-05 -0.67381883E-05 -0.76267193E-05
 -0.84404941E-05 -0.91748705E-05 -0.98258905E-05 -0.10390296E-04 -0.10865538E-04
 -0.11249784E-04 -0.11541917E-04 -0.11741529E-04 -0.11848911E-04 -0.11865036E-04
 -0.11791540E-04 -0.11630698E-04 -0.11385392E-04 -0.11059079E-04 -0.10655756E-04
 -0.10179917E-04 -0.96365114E-05 -0.90309002E-05 -0.83688049E-05 -0.76562604E-05
 -0.68995635E-05 -0.61052212E-05 -0.52798981E-05 -0.44303642E-05 -0.35634423E-05
 -0.26859563E-05 -0.18046805E-05 -0.92629039E-06 -0.57314313E-07  0.79591181E-06
  0.16272882E-05  0.24309921E-05  0.32015160E-05  0.39337025E-05  0.46227763E-05
  0.52643725E-05  0.58545617E-05  0.63898706E-05  0.68672999E-05  0.72843376E-05
  0.76389687E-05  0.79296813E-05  0.81554678E-05  0.83158242E-05  0.84107438E-05
  0.84407083E-05  0.84066758E-05  0.83100640E-05  0.81527324E-05  0.79369595E-05
  0.76654187E-05  0.73411514E-05  0.69675371E-05  0.65482629E-05  0.60872898E-05
  0.55888191E-05  0.50572560E-05  0.44971738E-05  0.39132767E-05  0.33103622E-05
  0.26932843E-05  0.20669157E-05  0.14361120E-05  0.80567527E-06  0.18031961E-06
 -0.43536238E-06 -0.10369316E-05 -0.16201329E-05 -0.21809231E-05 -0.27154978E-05
 -0.32203148E-05 -0.36921166E-05 -0.41279490E-05 -0.45251780E-05 -0.48815038E-05
 -0.51949719E-05 -0.54639817E-05 -0.56872922E-05 -0.58640249E-05 -0.59936642E-05
 -0.60760546E-05 -0.61113961E-05 -0.61002360E-05 -0.60434591E-05 -0.59422753E-05
 -0.57982051E-05 -0.56130627E-05 -0.53889374E-05 -0.51281736E-05 -0.48333490E-05
 -0.45072512E-05 -0.41528534E-05 -0.37732895E-05 -0.33718274E-05 -0.29518431E-05
 -0.25167933E-05 -0.20701885E-05 -0.16155660E-05 -0.11564630E-05 -0.69639042E-06
 -0.23880736E-06  0.21290405E-06  0.65546230E-06  0.10857092E-05  0.15006315E-05
  0.18973805E-05  0.22732907E-05  0.26258968E-05  0.29529482E-05  0.32524224E-05
  0.35225363E-05  0.37617554E-05  0.39688009E-05  0.41426554E-05  0.42825658E-05
  0.43880445E-05  0.44588689E-05  0.44950785E-05  0.44969702E-05  0.44650923E-05
  0.44002355E-05  0.43034240E-05  0.41759033E-05  0.40191276E-05  0.38347457E-05
  0.36245853E-05  0.33906368E-05  0.31350356E-05  0.28600438E-05  0.25680317E-05
  0.22614582E-05  0.19428508E-05  0.16147863E-05  0.12798703E-05  0.94071766E-06
  0.59993277E-06  0.26009045E-06 -0.76282779E-07 -0.40672671E-06 -0.72886466E-06
 -0.10404198E-05 -0.13392306E-05 -0.16232649E-05 -0.18906330E-05 -0.21395996E-05
 -0.23685940E-05 -0.25762195E-05 -0.27612605E-05 -0.29226895E-05 -0.30596707E-05
 -0.31715643E-05 -0.32579273E-05 -0.33185142E-05 -0.33532755E-05 -0.33623551E-05
 -0.33460860E-05 -0.33049852E-05 -0.32397468E-05 -0.31512338E-05 -0.30404697E-05
 -0.29086277E-05 -0.27570200E-05 -0.25870861E-05 -0.24003795E-05 -0.21985549E-05
 -0.19833542E-05 -0.17565921E-05 -0.15201417E-05 -0.12759193E-05 -0.10258698E-05
 -0.77195170E-06 -0.51612239E-06 -0.26032346E-06 -0.64666254E-08  0.24358005E-06
  0.48800543E-06  0.72506783E-06  0.95310699E-06  0.11705551E-05  0.13759472E-05
  0.15679303E-05  0.17452718E-05  0.19068672E-05  0.20517457E-05  0.21790760E-05
  0.22881701E-05  0.23784862E-05  0.24496308E-05  0.25013591E-05  0.25335749E-05
  0.25463287E-05  0.25398154E-05  0.25143708E-05  0.24704667E-05  0.24087053E-05
  0.23298135E-05  0.22346345E-05  0.21241209E-05  0.19993253E-05  0.18613912E-05
  0.17115432E-05  0.15510766E-05  0.13813468E-05  0.12037583E-05  0.10197536E-05
  0.83080160E-06  0.63838686E-06  0.44399781E-06  0.24911587E-06  0.55204475E-07
 -0.13630153E-06 -0.32400615E-06 -0.50656207E-06 -0.68267992E-06 -0.85113710E-06
 -0.10107858E-05 -0.11605606E-05 -0.12994849E-05 -0.14266774E-05 -0.15413568E-05
 -0.16428463E-05 -0.17305773E-05 -0.18040918E-05 -0.18630446E-05 -0.19072037E-05
 -0.19364508E-05 -0.19507807E-05 -0.19502992E-05 -0.19352210E-05 -0.19058666E-05
 -0.18626585E-05 -0.18061162E-05 -0.17368514E-05 -0.16555618E-05 -0.15630250E-05
 -0.14600913E-05 -0.13476765E-05 -0.12267543E-05 -0.10983477E-05 -0.96352137E-06
 -0.82337278E-06 -0.67902359E-06 -0.53161102E-06 -0.38227919E-06 -0.23217047E-06
 -0.82417053E-07  0.65867375E-07  0.21159562E-06  0.35371470E-06  0.49121321E-06
  0.62312828E-06  0.74855202E-06  0.86663755E-06  0.97660441E-06  0.10777435E-05
  0.11694212E-05  0.12510835E-05  0.13222582E-05  0.13825583E-05  0.14316828E-05
  0.14694182E-05  0.14956390E-05  0.15103072E-05  0.15134712E-05  0.15052647E-05
  0.14859044E-05  0.14556869E-05  0.14149859E-05  0.13642479E-05  0.13039885E-05
  0.12347870E-05  0.11572814E-05  0.10721632E-05  0.98017099E-06  0.88208480E-06
  0.77871944E-06  0.67091807E-06  0.55954553E-06  0.44548163E-06  0.32961440E-06
  0.21283334E-06  0.96022844E-07 -0.19944362E-07 -0.13421353E-06 -0.24595400E-06
 -0.35436509E-06 -0.45868161E-06 -0.55817910E-06 -0.65217867E-06 -0.74005146E-06
 -0.82122262E-06 -0.89517488E-06 -0.96145165E-06 -0.10196596E-05 -0.10694707E-05
 -0.11106239E-05 -0.11429261E-05 -0.11662527E-05 -0.11805476E-05 -0.11858228E-05
 -0.11821575E-05 -0.11696962E-05 -0.11486472E-05 -0.11192802E-05 -0.10819232E-05
 -0.10369593E-05 -0.98482378E-06 -0.92599919E-06 -0.86101189E-06 -0.79042724E-06
 -0.71484500E-06 -0.63489434E-06 -0.55122884E-06 -0.46452129E-06 -0.37545842E-06
 -0.28473564E-06 -0.19305174E-06 -0.10110365E-06 -0.95812845E-08  0.80837517E-07
  0.16949185E-06  0.25574247E-06  0.33897624E-06  0.41861037E-06  0.49409639E-06
  0.56492374E-06  0.63062311E-06  0.69076942E-06  0.74498436E-06  0.79293868E-06
  0.83435397E-06  0.86900407E-06  0.89671614E-06  0.91737123E-06  0.93090447E-06
  0.93730490E-06  0.93661487E-06  0.92892899E-06  0.91439286E-06  0.89320125E-06
  0.86559611E-06  0.83186411E-06  0.79233400E-06  0.74737358E-06  0.69738653E-06
  0.64280892E-06  0.58410556E-06  0.52176620E-06  0.45630157E-06  0.38823931E-06
  0.31811984E-06  0.24649219E-06  0.17390977E-06  0.10092625E-06  0.28091419E-07
 -0.44052883E-07 -0.11497666E-06 -0.18416558E-06 -0.25112459E-06 -0.31538137E-06
 -0.37648958E-06 -0.43403183E-06 -0.48762245E-06 -0.53690995E-06 -0.58157924E-06
 -0.62135350E-06 -0.65599580E-06 -0.68531035E-06 -0.70914343E-06 -0.72738408E-06
 -0.73996437E-06 -0.74685935E-06 -0.74808675E-06 -0.74370635E-06 -0.73381894E-06
 -0.71856517E-06 -0.69812393E-06 -0.67271062E-06 -0.64257508E-06 -0.60799931E-06
 -0.56929499E-06 -0.52680080E-06 -0.48087957E-06 -0.43191530E-06 -0.38031004E-06
 -0.32648068E-06 -0.27085567E-06 -0.21387172E-06 -0.15597040E-06 -0.97594830E-07
 atomic pseudo charge-density
  0.11000000E+02  0.10991736E+02  0.10967042E+02  0.10926211E+02  0.10869722E+02
  0.10798220E+02  0.10712497E+02  0.10613467E+02  0.10502134E+02  0.10379573E+02
  0.10246893E+02  0.10105214E+02  0.99556488E+01  0.97992749E+01  0.96371242E+01
  0.94701678E+01  0.92993084E+01  0.91253739E+01  0.89491155E+01  0.87712072E+01
  0.85922482E+01  0.84127658E+01  0.82332203E+01  0.80540104E+01  0.78754783E+01
  0.76979162E+01  0.75215712E+01  0.73466513E+01  0.71733303E+01  0.70017523E+01
  0.68320362E+01  0.66642795E+01  0.64985612E+01  0.63349453E+01  0.61734831E+01
  0.60142151E+01  0.58571732E+01  0.57023824E+01  0.55498614E+01  0.53996245E+01
  0.52516821E+01  0.51060415E+01  0.49627076E+01  0.48216833E+01  0.46829699E+01
  0.45465674E+01  0.44124750E+01  0.42806910E+01  0.41512129E+01  0.40240378E+01
  0.38991623E+01  0.37765825E+01  0.36562942E+01  0.35382925E+01  0.34225726E+01
  0.33091289E+01  0.31979554E+01  0.30890458E+01  0.29823931E+01  0.28779901E+01
  0.27758287E+01  0.26759004E+01  0.25781960E+01  0.24827058E+01  0.23894193E+01
  0.22983254E+01  0.22094121E+01  0.21226668E+01  0.20380762E+01  0.19556261E+01
  0.18753017E+01  0.17970870E+01  0.17209657E+01  0.16469204E+01  0.15749330E+01
  0.15049845E+01  0.14370552E+01  0.13711245E+01  0.13071711E+01  0.12451729E+01
  0.11851071E+01  0.11269500E+01  0.10706771E+01  0.10162636E+01  0.96368341E+00
  0.91291020E+00  0.86391678E+00  0.81667535E+00  0.77115750E+00  0.72733422E+00
  0.68517592E+00  0.64465248E+00  0.60573326E+00  0.56838714E+00  0.53258254E+00
  0.49828746E+00  0.46546949E+00  0.43409588E+00  0.40413354E+00  0.37554909E+00
  0.34830888E+00  0.32237905E+00  0.29772553E+00  0.27431411E+00  0.25211046E+00
  0.23108015E+00  0.21118873E+00  0.19240170E+00  0.17468463E+00  0.15800311E+00
  0.14232286E+00  0.12760971E+00  0.11382967E+00  0.10094895E+00  0.88934001E-01
  0.77751537E-01  0.67368587E-01  0.57752516E-01  0.48871061E-01  0.40692360E-01
  0.33184982E-01  0.26317961E-01  0.20060819E-01  0.14383599E-01  0.92568841E-02
  0.46518297E-02  0.54018314E-03 -0.31056926E-02 -0.63127977E-02 -0.91074758E-02
 -0.11515395E-01 -0.13561533E-01 -0.15270157E-01 -0.16664816E-01 -0.17768324E-01
 -0.18602748E-01 -0.19189404E-01 -0.19548843E-01 -0.19700851E-01 -0.19664437E-01
 -0.19457837E-01 -0.19098507E-01 -0.18603126E-01 -0.17987596E-01 -0.17267045E-01
 -0.16455833E-01 -0.15567554E-01 -0.14615048E-01 -0.13610404E-01 -0.12564976E-01
 -0.11489388E-01 -0.10393551E-01 -0.92866719E-02 -0.81772725E-02 -0.70732022E-02
 -0.59816553E-02 -0.49091883E-02 -0.38617384E-02 -0.28446423E-02 -0.18626563E-02
 -0.91997631E-03 -0.20259449E-04  0.83335482E-03  0.16382225E-02  0.23921728E-02
  0.30934853E-02  0.37408671E-02  0.43334296E-02  0.48706657E-02  0.53524260E-02
  0.57788960E-02  0.61505727E-02  0.64682420E-02  0.67329556E-02  0.69460089E-02
  0.71089184E-02  0.72234007E-02  0.72913503E-02  0.73148194E-02  0.72959977E-02
  0.72371923E-02  0.71408088E-02  0.70093328E-02  0.68453127E-02  0.66513418E-02
  0.64300427E-02  0.61840517E-02  0.59160039E-02  0.56285196E-02  0.53241910E-02
  0.50055702E-02  0.46751576E-02  0.43353916E-02  0.39886391E-02  0.36371860E-02
  0.32832303E-02  0.29288738E-02  0.25761168E-02  0.22268521E-02  0.18828606E-02
  0.15458072E-02  0.12172378E-02  0.89857700E-03  0.59112627E-03  0.29606319E-03
  0.14441079E-04 -0.25281067E-03 -0.50488562E-03 -0.74109876E-03 -0.96088442E-03
 -0.11637937E-02 -0.13494915E-02 -0.15177529E-02 -0.16684594E-02 -0.18015944E-02
 -0.19172391E-02 -0.20155673E-02 -0.20968401E-02 -0.21614012E-02 -0.22096704E-02
 -0.22421391E-02 -0.22593633E-02 -0.22619586E-02 -0.22505939E-02 -0.22259855E-02
 -0.21888912E-02 -0.21401044E-02 -0.20804480E-02 -0.20107692E-02 -0.19319335E-02
 -0.18448193E-02 -0.17503124E-02 -0.16493014E-02 -0.15426723E-02 -0.14313037E-02
 -0.13160629E-02 -0.11978011E-02 -0.10773498E-02 -0.95551667E-03 -0.83308269E-03
 -0.71079855E-03 -0.58938200E-03 -0.46951521E-03 -0.35184255E-03 -0.23696857E-03
 -0.12545634E-03 -0.17826022E-04  0.85446218E-04  0.18392905E-03  0.27723655E-03
  0.36502847E-03  0.44701030E-03  0.52293305E-03  0.59259280E-03  0.65583001E-03
  0.71252868E-03  0.76261518E-03  0.80605709E-03  0.84286162E-03  0.87307412E-03
  0.89677625E-03  0.91408411E-03  0.92514627E-03  0.93014164E-03  0.92927730E-03
  0.92278621E-03  0.91092497E-03  0.89397137E-03  0.87222209E-03  0.84599024E-03
  0.81560302E-03  0.78139928E-03  0.74372719E-03  0.70294192E-03  0.65940334E-03
  0.61347383E-03  0.56551610E-03  0.51589114E-03  0.46495621E-03  0.41306296E-03
  0.36055565E-03  0.30776943E-03  0.25502878E-03  0.20264605E-03  0.15092011E-03
  0.10013518E-03  0.50559645E-04  0.24451931E-05 -0.43974086E-04 -0.88482386E-04
 -0.13088277E-03 -0.17099761E-03 -0.20866894E-03 -0.24375867E-03 -0.27614863E-03
 -0.30574060E-03 -0.33245613E-03 -0.35623634E-03 -0.37704153E-03 -0.39485078E-03
 -0.40966139E-03 -0.42148830E-03 -0.43036335E-03 -0.43633455E-03 -0.43946526E-03
 -0.43983326E-03 -0.43752985E-03 -0.43265885E-03 -0.42533558E-03 -0.41568582E-03
 -0.40384470E-03 -0.38995566E-03 -0.37416933E-03 -0.35664239E-03 -0.33753649E-03
 -0.31701720E-03 -0.29525283E-03 -0.27241347E-03 -0.24866989E-03 -0.22419256E-03
 -0.19915066E-03 -0.17371118E-03 -0.14803799E-03 -0.12229105E-03 -0.96625553E-04
 -0.71191232E-04 -0.46131658E-04 -0.21583611E-04  0.23234866E-05  0.25468085E-04
  0.47736950E-04  0.69025557E-04  0.89238409E-04  0.10828931E-03  0.12610156E-03
  0.14260809E-03  0.15775159E-03  0.17148447E-03  0.18376886E-03  0.19457654E-03
  0.20388879E-03  0.21169619E-03  0.21799841E-03  0.22280391E-03  0.22612964E-03
  0.22800067E-03  0.22844980E-03  0.22751712E-03  0.22524961E-03  0.22170059E-03
  0.21692926E-03  0.21100018E-03  0.20398274E-03  0.19595059E-03  0.18698112E-03
  0.17715489E-03  0.16655504E-03  0.15526681E-03  0.14337692E-03  0.13097303E-03
  0.11814327E-03  0.10497563E-03  0.91557548E-04  0.77975350E-04  0.64313824E-04
  0.50655772E-04  0.37081583E-04  0.23668850E-04  0.10492000E-04 -0.23780418E-05
 -0.14874160E-04 -0.26933322E-04 -0.38496826E-04 -0.49510516E-04 -0.59924957E-04
 -0.69695595E-04 -0.78782865E-04 -0.87152282E-04 -0.94774496E-04 -0.10162532E-03
 -0.10768570E-03 -0.11294173E-03 -0.11738455E-03 -0.12101023E-03 -0.12381975E-03
 -0.12581876E-03 -0.12701746E-03 -0.12743043E-03 -0.12707640E-03 -0.12597806E-03
 -0.12416177E-03 -0.12165736E-03 -0.11849784E-03 -0.11471915E-03 -0.11035983E-03
 -0.10546077E-03 -0.10006489E-03 -0.94216855E-04 -0.87962765E-04 -0.81349852E-04
 -0.74426180E-04 -0.67240354E-04 -0.59841219E-04 -0.52277582E-04 -0.44597929E-04
 -0.36850157E-04 -0.29081318E-04 -0.21337371E-04 -0.13662946E-04 -0.61011257E-05
  0.13067626E-05  0.85213356E-05  0.15505330E-04  0.22223762E-04  0.28644067E-04
  0.34736225E-04  0.40472865E-04  0.45829359E-04  0.50783889E-04  0.55317500E-04
  0.59414141E-04  0.63060678E-04  0.66246901E-04  0.68965506E-04  0.71212066E-04
  0.72984985E-04  0.74285437E-04  0.75117289E-04  0.75487017E-04  0.75403603E-04
  0.74878421E-04  0.73925116E-04  0.72559473E-04  0.70799270E-04  0.68664133E-04
  0.66175380E-04  0.63355856E-04  0.60229768E-04  0.56822515E-04  0.53160515E-04
  0.49271030E-04  0.45181991E-04  0.40921825E-04  0.36519278E-04  0.32003247E-04
  0.27402611E-04  0.22746067E-04  0.18061971E-04  0.13378185E-04  0.87219301E-05
  0.41196449E-05 -0.40314514E-06 -0.48219529E-05 -0.91134449E-05 -0.13255548E-04
 -0.17227546E-04 -0.21010168E-04 -0.24585663E-04 -0.27937868E-04 -0.31052267E-04
 -0.33916030E-04 -0.36518058E-04 -0.38848996E-04 -0.40901260E-04 -0.42669031E-04
 -0.44148255E-04 -0.45336624E-04 -0.46233553E-04 -0.46840148E-04 -0.47159155E-04
 -0.47194918E-04 -0.46953314E-04 -0.46441689E-04 -0.45668783E-04 -0.44644654E-04
 -0.43380585E-04 -0.41889004E-04 -0.40183380E-04 -0.38278130E-04 -0.36188513E-04
 -0.33930530E-04 -0.31520813E-04 -0.28976520E-04 -0.26315223E-04 -0.23554804E-04
 -0.20713344E-04 -0.17809014E-04 -0.14859976E-04 -0.11884273E-04 -0.88997311E-05
 -0.59238642E-05 -0.29737782E-05 -0.66083038E-07  0.27831924E-05  0.55586796E-05
  0.82457449E-05  0.10830558E-04  0.13300156E-04  0.15642496E-04  0.17846511E-04
  0.19902150E-04  0.21800415E-04  0.23533395E-04  0.25094285E-04  0.26477408E-04
  0.27678219E-04  0.28693317E-04  0.29520435E-04  0.30158435E-04  0.30607290E-04
  0.30868065E-04  0.30942889E-04  0.30834921E-04  0.30548316E-04  0.30088176E-04
  0.29460510E-04  0.28672176E-04  0.27730830E-04  0.26644866E-04  0.25423351E-04
  0.24075967E-04  0.22612935E-04  0.21044956E-04  0.19383134E-04  0.17638907E-04
  0.15823975E-04  0.13950230E-04  0.12029681E-04  0.10074384E-04  0.80963747E-05
  0.61075965E-05  0.41198347E-05  0.21446523E-05  0.19332732E-06 -0.17232070E-05
 -0.35944185E-05 -0.54102291E-05 -0.71610650E-05 -0.88379024E-05 -0.10432309E-04
 -0.11936483E-04 -0.13343286E-04 -0.14646271E-04 -0.15839710E-04 -0.16918611E-04
 -0.17878737E-04 -0.18716613E-04 -0.19429537E-04 -0.20015578E-04 -0.20473576E-04
 -0.20803135E-04 -0.21004610E-04 -0.21079094E-04 -0.21028397E-04 -0.20855026E-04
 -0.20562153E-04 -0.20153593E-04 -0.19633762E-04 -0.19007648E-04 -0.18280769E-04
 -0.17459133E-04 -0.16549195E-04 -0.15557812E-04 -0.14492194E-04 -0.13359861E-04
 -0.12168590E-04 -0.10926369E-04 -0.96413426E-05 -0.83217680E-05 -0.69759610E-05
 -0.56122482E-05 -0.42389192E-05 -0.28641781E-05 -0.14960982E-05 -0.14257725E-06
  0.11887057E-05  0.24903307E-05  0.37551760E-05  0.49764540E-05  0.61477454E-05
  0.72630299E-05  0.83167151E-05  0.93036610E-05  0.10219203E-04  0.11059172E-04
  0.11819908E-04  0.12498274E-04  0.13091668E-04  0.13598025E-04  0.14015823E-04
  0.14344084E-04  0.14582367E-04  0.14730765E-04  0.14789895E-04  0.14760883E-04
  0.14645355E-04  0.14445414E-04  0.14163621E-04  0.13802976E-04  0.13366891E-04
  0.12859160E-04  0.12283939E-04  0.11645707E-04  0.10949240E-04  0.10199580E-04
  0.94019936E-05  0.85619463E-05  0.76850621E-05  0.67770899E-05  0.58438679E-05
  0.48912882E-05  0.39252609E-05  0.29516802E-05  0.19763895E-05  0.10051488E-05
  0.43601845E-07 -0.90275484E-06 -0.18286015E-05 -0.27288236E-05 -0.35985384E-05
 -0.44331196E-05 -0.52282207E-05 -0.59797955E-05 -0.66841175E-05 -0.73377962E-05
 -0.79377915E-05 -0.84814267E-05 -0.89663974E-05 -0.93907799E-05 -0.97530361E-05
 -0.10052016E-04 -0.10286960E-04 -0.10457496E-04 -0.10563632E-04 -0.10605759E-04
 -0.10584634E-04 -0.10501374E-04 -0.10357442E-04 -0.10154636E-04 -0.98950698E-05
 -0.95811573E-05 -0.92155940E-05 -0.88013363E-05 -0.83415802E-05 -0.78397387E-05
 -0.72994192E-05 -0.67243982E-05 -0.61185977E-05 -0.54860592E-05 -0.48309185E-05
 -0.41573803E-05 -0.34696918E-05 -0.27721178E-05 -0.20689153E-05 -0.13643086E-05
 -0.66246514E-06  0.32528031E-07  0.71668696E-06  0.13861525E-05  0.20372110E-05
  0.26663139E-05  0.32700957E-05  0.38453913E-05  0.43892509E-05  0.48989545E-05
  0.53720240E-05  0.58062341E-05  0.61996214E-05  0.65504919E-05  0.68574270E-05
  0.71192874E-05  0.73352154E-05  0.75046359E-05  0.76272554E-05  0.77030593E-05
  0.77323079E-05  0.77155306E-05  0.76535187E-05  0.75473170E-05  0.73982135E-05
  0.72077284E-05  0.69776020E-05  0.67097803E-05  0.64064016E-05  0.60697801E-05
  0.57023906E-05  0.53068508E-05  0.48859043E-05  0.44424028E-05  0.39792872E-05
  0.34995698E-05  0.30063149E-05  0.25026206E-05  0.19916001E-05  0.14763631E-05
  0.95999776E-06  0.44555314E-06 -0.63978312E-07 -0.56567723E-06 -0.10567133E-05
 -0.15343607E-05 -0.19960119E-05 -0.24391919E-05 -0.28615700E-05 -0.32609719E-05
 -0.36353896E-05 -0.39829908E-05 -0.43021272E-05 -0.45913410E-05 -0.48493710E-05
 -0.50751569E-05 -0.52678425E-05 -0.54267775E-05 -0.55515187E-05 -0.56418293E-05
 -0.56976771E-05 -0.57192321E-05 -0.57068621E-05 -0.56611278E-05 -0.55827771E-05
 -0.54727372E-05 -0.53321076E-05 -0.51621501E-05 -0.49642801E-05 -0.47400552E-05
 -0.44911650E-05 -0.42194184E-05 -0.39267321E-05 -0.36151174E-05 -0.32866674E-05
 -0.29435435E-05 -0.25879619E-05 -0.22221797E-05 -0.18484817E-05 -0.14691660E-05
 -0.10865311E-05 -0.70286215E-06 -0.32041788E-06  0.58582050E-07  0.43196942E-06
  0.79763936E-06  0.11535617E-05  0.14977915E-05  0.18284795E-05  0.21438813E-05
  0.24423659E-05  0.27224237E-05  0.29826736E-05  0.32218692E-05  0.34389039E-05
  0.36328158E-05  0.38027907E-05  0.39481654E-05  0.40684287E-05  0.41632230E-05
  0.42323435E-05  0.42757379E-05  0.42935041E-05  0.42858880E-05  0.42532794E-05
  0.41962084E-05  0.41153401E-05  0.40114687E-05  0.38855114E-05  0.37385015E-05
  0.35715803E-05  0.33859895E-05  0.31830625E-05  0.29642153E-05  0.27309374E-05
  0.24847819E-05  0.22273559E-05  0.19603103E-05  0.16853299E-05  0.14041227E-05
  0.11184102E-05  0.82991722E-06  0.54036141E-06  0.25144398E-06 -0.35160242E-07
 -0.31781204E-06 -0.59491684E-06 -0.86493332E-06 -0.11263816E-05 -0.13778510E-05
 -0.16180073E-05 -0.18455993E-05 -0.20594653E-05 -0.22585381E-05 -0.24418505E-05
 -0.26085391E-05 -0.27578482E-05 -0.28891326E-05 -0.30018602E-05 -0.30956132E-05
 -0.31700891E-05 -0.32251013E-05 -0.32605783E-05 -0.32765627E-05 -0.32732098E-05
 -0.32507846E-05 -0.32096596E-05 -0.31503109E-05 -0.30733140E-05 -0.29793396E-05
 -0.28691481E-05 -0.27435844E-05 -0.26035718E-05 -0.24501056E-05 -0.22842469E-05
 -0.21071149E-05 -0.19198803E-05 -0.17237579E-05 -0.15199986E-05 -0.13098820E-05
 -0.10947090E-05 -0.87579318E-06 -0.65445402E-06 -0.43200855E-06 -0.20976404E-06
  0.10989454E-07  0.22898631E-06  0.44299238E-06  0.65181168E-06  0.85429287E-06
  0.10493353E-05  0.12358948E-05  0.14129889E-05  0.15797020E-05  0.17351895E-05
  0.18786823E-05  0.20094896E-05  0.21270027E-05  0.22306972E-05  0.23201349E-05
  0.23949654E-05  0.24549273E-05  0.24998483E-05  0.25296453E-05  0.25443240E-05
  0.25439774E-05  0.25287847E-05  0.24990089E-05  0.24549945E-05  0.23971645E-05
  0.23260169E-05  0.22421213E-05  0.21461144E-05  0.20386960E-05  0.19206235E-05
  0.17927076E-05  0.16558068E-05  0.15108216E-05  0.13586890E-05  0.12003769E-05
  0.10368777E-05  0.86920280E-06  0.69837603E-06  0.52542798E-06  0.35138975E-06
  0.17728709E-06  0.41344844E-08 -0.16707057E-06 -0.33535316E-06 -0.49976631E-06
 -0.65939617E-06 -0.81336693E-06 -0.96084544E-06 -0.11010456E-05 -0.12332323E-05
 -0.13567253E-05 -0.14709022E-05 -0.15752019E-05 -0.16691267E-05 -0.17522447E-05
 -0.18241918E-05 -0.18846726E-05 -0.19334616E-05 -0.19704037E-05 -0.19954147E-05
 -0.20084803E-05 -0.20096559E-05 -0.19990655E-05 -0.19769003E-05 -0.19434164E-05
 -0.18989331E-05 -0.18438304E-05 -0.17785457E-05 -0.17035711E-05 -0.16194495E-05
 -0.15267715E-05 -0.14261709E-05 -0.13183208E-05 -0.12039295E-05 -0.10837354E-05
 -0.95850315E-06 -0.82901828E-06 -0.69608282E-06 -0.56051027E-06 -0.42312086E-06
 -0.28473664E-06 -0.14617671E-06 -0.82524979E-08  0.12823689E-06  0.26250919E-06
  0.39380335E-06  0.52138372E-06  0.64454409E-06  0.76261148E-06  0.87494970E-06
  0.98096269E-06  0.10800976E-05  0.11718474E-05  0.12557536E-05  0.13314083E-05
  0.13984560E-05  0.14565951E-05  0.15055792E-05  0.15452180E-05  0.15753778E-05
  0.15959815E-05  0.16070087E-05  0.16084951E-05  0.16005320E-05  0.15832646E-05
  0.15568914E-05  0.15216617E-05  0.14778741E-05  0.14258744E-05  0.13660523E-05
  0.12988398E-05  0.12247073E-05  0.11441610E-05  0.10577392E-05  0.96600932E-06
  0.86956378E-06  0.76901660E-06  0.66499949E-06  0.55815797E-06  0.44914751E-06
  0.33862953E-06  0.22726752E-06  0.11572314E-06  0.46523195E-08 -0.10529844E-06
 -0.21349584E-06 -0.31932326E-06 -0.42218430E-06 -0.52150597E-06 -0.61674189E-06
 -0.70737515E-06 -0.79292108E-06 -0.87292975E-06 -0.94698825E-06 -0.10147227E-05
 -0.10758002E-05 -0.11299302E-05 -0.11768657E-05 -0.12164046E-05 -0.12483900E-05
 -0.12727111E-05 -0.12893030E-05 -0.12981468E-05 -0.12992695E-05 -0.12927427E-05
 -0.12786825E-05 -0.12572479E-05 -0.12286395E-05 -0.11930979E-05 -0.11509023E-05
 -0.11023678E-05 -0.10478437E-05 -0.98771078E-06 -0.92237904E-06 -0.85228483E-06
 -0.77788804E-06 -0.69966922E-06 -0.61812649E-06 -0.53377251E-06 -0.44713126E-06
 -0.35873489E-06 -0.26912053E-06 -0.17882703E-06 -0.88391842E-07  0.16521591E-08
  0.90779742E-07  0.17847633E-06  0.26424091E-06  0.34758886E-06  0.42805458E-06
  0.50519409E-06  0.57858739E-06  0.64784071E-06  0.71258852E-06  0.77249543E-06
  0.82725784E-06  0.87660540E-06  0.92030230E-06  0.95814826E-06  0.98997939E-06
   16.2516435017787      T
 Non local Part
           2           2   1.24033371831870     
   43.5052895417016       -39.8529118936718       -39.8529118936718     
   34.9616110102703     
 Reciprocal Space Part
  0.00000000E+00  0.96748447E-02  0.38588491E-01  0.86410659E-01  0.15259875E+00
  0.23640937E+00  0.33691396E+00  0.45301796E+00  0.58348296E+00  0.72695110E+00
  0.88197092E+00  0.10470239E+01  0.12205507E+01  0.14009767E+01  0.15867356E+01
  0.17762907E+01  0.19681533E+01  0.21608974E+01  0.23531713E+01  0.25437047E+01
  0.27313120E+01  0.29148923E+01  0.30934256E+01  0.32659658E+01  0.34316319E+01
  0.35895966E+01  0.37390742E+01  0.38793084E+01  0.40095600E+01  0.41290962E+01
  0.42371819E+01  0.43330736E+01  0.44160158E+01  0.44852421E+01  0.45399794E+01
  0.45794561E+01  0.46029145E+01  0.46096270E+01  0.45989150E+01  0.45701712E+01
  0.45228840E+01  0.44566628E+01  0.43712640E+01  0.42666160E+01  0.41428434E+01
  0.40002881E+01  0.38395267E+01  0.36613838E+01  0.34669404E+01  0.32575354E+01
  0.30347619E+01  0.28004564E+01  0.25566807E+01  0.23056981E+01  0.20499426E+01
  0.17919823E+01  0.15344781E+01  0.12801378E+01  0.10316673E+01  0.79171945E+00
  0.56284282E+00  0.34743063E+00  0.14767188E+00 -0.34494139E-01 -0.19741876E+00
 -0.33977909E+00 -0.46060626E+00 -0.55930607E+00 -0.63567123E+00 -0.68988490E+00
 -0.72251516E+00 -0.73450063E+00 -0.72712741E+00 -0.70199789E+00 -0.66099232E+00
 -0.60622387E+00 -0.53998856E+00 -0.46471119E+00 -0.38288880E+00 -0.29703301E+00
 -0.20961286E+00 -0.12299951E+00 -0.39414383E-01  0.39118097E-01  0.11081183E+00
  0.17415349E+00  0.22792932E+00  0.27124352E+00  0.30352807E+00  0.32454376E+00
  0.33437251E+00  0.33340154E+00  0.32229982E+00  0.30198770E+00  0.27360072E+00
  0.23844864E+00  0.19797114E+00  0.15369134E+00  0.10716858E+00  0.59951846E-01
 Real Space Part
  0.00000000E+00  0.16870707E-01  0.67394217E-01  0.15130506E+00  0.26816205E+00
  0.41735007E+00  0.59808275E+00  0.80940570E+00  0.10502006E+01  0.13191898E+01
  0.16149420E+01  0.19358780E+01  0.22802779E+01  0.26462878E+01  0.30319288E+01
  0.34351045E+01  0.38536110E+01  0.42851464E+01  0.47273208E+01  0.51776672E+01
  0.56336529E+01  0.60926908E+01  0.65521515E+01  0.70093760E+01  0.74616880E+01
  0.79064074E+01  0.83408633E+01  0.87624077E+01  0.91684293E+01  0.95563674E+01
  0.99237257E+01  0.10268087E+02  0.10587126E+02  0.10878627E+02  0.11140492E+02
  0.11370759E+02  0.11567618E+02  0.11729417E+02  0.11854681E+02  0.11942124E+02
  0.11990660E+02  0.11999415E+02  0.11967740E+02  0.11895219E+02  0.11781677E+02
  0.11627194E+02  0.11432108E+02  0.11197021E+02  0.10922807E+02  0.10610610E+02
  0.10261852E+02  0.98782277E+01  0.94617025E+01  0.90145110E+01  0.85391481E+01
  0.80383605E+01  0.75151353E+01  0.69726854E+01  0.64144334E+01  0.58439913E+01
  0.52651389E+01  0.46817983E+01  0.40980065E+01  0.35178851E+01  0.29456075E+01
  0.23853642E+01  0.18413258E+01  0.13176040E+01  0.81821225E+00  0.34702409E+00
 -0.92268030E-01 -0.49619470E+00 -0.86155084E+00 -0.11854361E+01 -0.14652939E+01
 -0.16989489E+01 -0.18846411E+01 -0.20210577E+01 -0.21073619E+01 -0.21432165E+01
 -0.21288041E+01 -0.20648439E+01 -0.19525996E+01 -0.17938886E+01 -0.15910783E+01
 -0.13470858E+01 -0.10653627E+01 -0.74988507E+00 -0.40512798E+00 -0.36052311E-01
  0.35194670E+00  0.75330455E+00  0.11604020E+01  0.15646259E+01  0.20205146E+01
  0.18580256E+01  0.13563345E+01  0.79746585E+00  0.10107162E+00  0.00000000E+00
 Reciprocal Space Part
  0.00000000E+00  0.22546061E-01  0.89712333E-01  0.20008987E+00  0.35135297E+00
  0.54029292E+00  0.76286488E+00  0.10142477E+01  0.12889163E+01  0.15807257E+01
  0.18830071E+01  0.21886732E+01  0.24903338E+01  0.27804192E+01  0.30513101E+01
  0.32954725E+01  0.35055959E+01  0.36747318E+01  0.37964316E+01  0.38648801E+01
  0.38750230E+01  0.38226852E+01  0.37046775E+01  0.35188895E+01  0.32643651E+01
  0.29413601E+01  0.25513777E+01  0.20971822E+01  0.15827890E+01  0.10134287E+01
  0.39548737E+00 -0.26357851E+00 -0.95535119E+00 -0.16705834E+01 -0.23993505E+01
 -0.31312214E+01 -0.38554438E+01 -0.45611415E+01 -0.52375195E+01 -0.58740714E+01
 -0.64607872E+01 -0.69883541E+01 -0.74483476E+01 -0.78334074E+01 -0.81373945E+01
 -0.83555248E+01 -0.84844766E+01 -0.85224683E+01 -0.84693046E+01 -0.83263894E+01
 -0.80967045E+01 -0.77847545E+01 -0.73964788E+01 -0.69391318E+01 -0.64211345E+01
 -0.58519004E+01 -0.52416397E+01 -0.46011461E+01 -0.39415715E+01 -0.32741932E+01
 -0.26101805E+01 -0.19603637E+01 -0.13350143E+01 -0.74363838E+00 -0.19479072E+00
  0.30408823E+00  0.74680699E+00  0.11285273E+01  0.14458353E+01  0.16967785E+01
  0.18808676E+01  0.19990443E+01  0.20536152E+01  0.20481557E+01  0.19873845E+01
  0.18770146E+01  0.17235832E+01  0.15342666E+01  0.13166841E+01  0.10786966E+01
  0.82820518E+00  0.57295520E+00  0.32034992E+00  0.77279488E-01 -0.15003138E+00
 -0.35615316E+00 -0.53655594E+00 -0.68768634E+00 -0.80701572E+00 -0.89305910E+00
 -0.94536515E+00 -0.96447848E+00 -0.95187594E+00 -0.90987973E+00 -0.84155029E+00
 -0.75056271E+00 -0.64107078E+00 -0.51756271E+00 -0.38471324E+00 -0.24723626E+00
 Real Space Part
  0.00000000E+00 -0.35610686E-01 -0.14221712E+00 -0.31914353E+00 -0.56526738E+00
 -0.87902495E+00 -0.12584192E+01 -0.17010295E+01 -0.22040242E+01 -0.27641745E+01
 -0.33778707E+01 -0.40411409E+01 -0.47496707E+01 -0.54988254E+01 -0.62836742E+01
 -0.70990151E+01 -0.79394025E+01 -0.87991758E+01 -0.96724892E+01 -0.10553343E+02
 -0.11435617E+02 -0.12313103E+02 -0.13179540E+02 -0.14028648E+02 -0.14854168E+02
 -0.15649894E+02 -0.16409713E+02 -0.17127642E+02 -0.17797864E+02 -0.18414768E+02
 -0.18972983E+02 -0.19467418E+02 -0.19893297E+02 -0.20246195E+02 -0.20522074E+02
 -0.20717313E+02 -0.20828747E+02 -0.20853692E+02 -0.20789978E+02 -0.20635975E+02
 -0.20390619E+02 -0.20053434E+02 -0.19624555E+02 -0.19104741E+02 -0.18495394E+02
 -0.17798564E+02 -0.17016962E+02 -0.16153957E+02 -0.15213579E+02 -0.14200509E+02
 -0.13120072E+02 -0.11978213E+02 -0.10781485E+02 -0.95370139E+01 -0.82524659E+01
 -0.69360110E+01 -0.55962748E+01 -0.42422872E+01 -0.28834241E+01 -0.15293439E+01
 -0.18991713E+00  0.11248491E+01  0.24048915E+01  0.36401763E+01  0.48207886E+01
  0.59370255E+01  0.69794917E+01  0.79391970E+01  0.88076547E+01  0.95769792E+01
  0.10239984E+02  0.10790273E+02  0.11222336E+02  0.11531631E+02  0.11714661E+02
  0.11769056E+02  0.11693626E+02  0.11488424E+02  0.11154789E+02  0.10695378E+02
  0.10114190E+02  0.94165778E+01  0.86092435E+01  0.77002303E+01  0.66988864E+01
  0.56158397E+01  0.44629335E+01  0.32531798E+01  0.20006732E+01  0.72054167E+00
 -0.57120458E+00 -0.18584157E+01 -0.31195543E+01 -0.43306444E+01 -0.56439152E+01
 -0.51966895E+01 -0.37959171E+01 -0.22332537E+01 -0.28316566E+00  0.00000000E+00
 Non local Part
           0           2   1.24033371831870     
   3.95741270504415        7.45754111769661        7.45754111769661     
   14.0847230960232     
 Reciprocal Space Part
  0.21736103E+02  0.21479802E+02  0.20714621E+02  0.19451662E+02  0.17709235E+02
  0.15512568E+02  0.12893409E+02  0.98895234E+01  0.65441013E+01  0.29050787E+01
 -0.97561426E+00 -0.50428650E+01 -0.92392367E+01 -0.13505859E+02 -0.17783338E+02
 -0.22012663E+02 -0.26136112E+02 -0.30098114E+02 -0.33846087E+02 -0.37331205E+02
 -0.40509105E+02 -0.43340516E+02 -0.45791791E+02 -0.47835350E+02 -0.49450012E+02
 -0.50621217E+02 -0.51341143E+02 -0.51608705E+02 -0.51429436E+02 -0.50815276E+02
 -0.49784240E+02 -0.48359999E+02 -0.46571372E+02 -0.44451738E+02 -0.42038386E+02
 -0.39371806E+02 -0.36494944E+02 -0.33452433E+02 -0.30289806E+02 -0.27052723E+02
 -0.23786201E+02 -0.20533891E+02 -0.17337389E+02 -0.14235605E+02 -0.11264203E+02
 -0.84551096E+01 -0.58361154E+01 -0.34305565E+01 -0.12570949E+01  0.67040919E+00
  0.23429291E+01  0.37562115E+01  0.49106267E+01  0.58109369E+01  0.64659875E+01
  0.68883319E+01  0.70937987E+01  0.71010121E+01  0.69308780E+01  0.66060462E+01
  0.61503624E+01  0.55883211E+01  0.49445312E+01  0.42432058E+01  0.35076852E+01
  0.27600042E+01  0.20205086E+01  0.13075304E+01  0.63712432E+00  0.22869678E-01
 -0.52426068E+00 -0.99596452E+00 -0.13866090E+01 -0.16931673E+01 -0.19150972E+01
 -0.20541681E+01 -0.21142417E+01 -0.21010157E+01 -0.20217377E+01 -0.18848976E+01
 -0.16999080E+01 -0.14767814E+01 -0.12258117E+01 -0.95726870E+00 -0.68111264E+00
 -0.40673543E+00 -0.14273349E+00  0.10328300E+00  0.32484134E+00  0.51671623E+00
  0.67499733E+00  0.79711512E+00  0.88182648E+00  0.92916254E+00  0.94034242E+00
  0.91765712E+00  0.86432849E+00  0.78434877E+00  0.68230632E+00  0.56320363E+00
 Real Space Part
 -0.17156671E+03 -0.17148978E+03 -0.17125897E+03 -0.17087428E+03 -0.17033572E+03
 -0.16964328E+03 -0.16879699E+03 -0.16779686E+03 -0.16664299E+03 -0.16533546E+03
 -0.16387444E+03 -0.16226018E+03 -0.16049297E+03 -0.15857326E+03 -0.15650159E+03
 -0.15427865E+03 -0.15190530E+03 -0.14938259E+03 -0.14671178E+03 -0.14389438E+03
 -0.14093214E+03 -0.13782713E+03 -0.13458171E+03 -0.13119859E+03 -0.12768086E+03
 -0.12403199E+03 -0.12025587E+03 -0.11635685E+03 -0.11233973E+03 -0.10820982E+03
 -0.10397293E+03 -0.99635381E+02 -0.95204076E+02 -0.90686454E+02 -0.86090528E+02
 -0.81424887E+02 -0.76698700E+02 -0.71921713E+02 -0.67104240E+02 -0.62257160E+02
 -0.57391891E+02 -0.52520375E+02 -0.47655043E+02 -0.42808786E+02 -0.37994907E+02
 -0.33227075E+02 -0.28519270E+02 -0.23885716E+02 -0.19340813E+02 -0.14899058E+02
 -0.10574958E+02 -0.63829426E+01 -0.23372611E+01  0.15481185E+01  0.52596198E+01
  0.87841706E+01  0.12109319E+02  0.15223355E+02  0.18115422E+02  0.20775647E+02
  0.23195246E+02  0.25366644E+02  0.27283578E+02  0.28941199E+02  0.30336162E+02
  0.31466705E+02  0.32332718E+02  0.32935793E+02  0.33279263E+02  0.33368220E+02
  0.33209517E+02  0.32811753E+02  0.32185230E+02  0.31341901E+02  0.30295287E+02
  0.29060386E+02  0.27653556E+02  0.26092377E+02  0.24395513E+02  0.22582538E+02
  0.20673769E+02  0.18690081E+02  0.16652712E+02  0.14583073E+02  0.12502546E+02
  0.10432294E+02  0.83930641E+01  0.64050063E+01  0.44874945E+01  0.26589807E+01
  0.93679700E+00 -0.66351536E+00 -0.21238712E+01 -0.34260968E+01 -0.47010378E+01
 -0.44076499E+01 -0.32711410E+01 -0.19557411E+01 -0.25061282E+00  0.00000000E+00
 Reciprocal Space Part
 -0.41239711E+01 -0.40064060E+01 -0.36554873E+01 -0.30765163E+01 -0.22782341E+01
 -0.12726817E+01 -0.75007502E-01  0.12967747E+01  0.28220730E+01  0.44780458E+01
  0.62399642E+01  0.80816049E+01  0.99756640E+01  0.11894188E+02  0.13809010E+02
  0.15692193E+02  0.17516459E+02  0.19255610E+02  0.20884927E+02  0.22381543E+02
  0.23724777E+02  0.24896438E+02  0.25881079E+02  0.26666206E+02  0.27242431E+02
  0.27603583E+02  0.27746750E+02  0.27672278E+02  0.27383706E+02  0.26887659E+02
  0.26193678E+02  0.25314017E+02  0.24263382E+02  0.23058647E+02  0.21718532E+02
  0.20263250E+02  0.18714147E+02  0.17093317E+02  0.15423226E+02  0.13726324E+02
  0.12024675E+02  0.10339605E+02  0.86913610E+01  0.70988128E+01  0.55791751E+01
  0.41477758E+01  0.28178619E+01  0.16004506E+01  0.50422620E+00 -0.46451635E+00
 -0.13018808E+01 -0.20063339E+01 -0.25786256E+01 -0.30216683E+01 -0.33403800E+01
 -0.35414928E+01 -0.36333353E+01 -0.36255911E+01 -0.35290413E+01 -0.33552953E+01
 -0.31165182E+01 -0.28251575E+01 -0.24936780E+01 -0.21343087E+01 -0.17588067E+01
 -0.13782435E+01 -0.10028166E+01 -0.64168968E+00 -0.30286446E+00  0.69150607E-02
  0.28222485E+00  0.51898966E+00  0.71447922E+00  0.86727354E+00  0.97719935E+00
  0.10452409E+01  0.10734278E+01  0.10647053E+01  0.10227883E+01  0.95200702E+00
  0.85714521E+00  0.74327801E+00  0.61561186E+00  0.47933132E+00  0.33945622E+00
  0.20071211E+00  0.67417112E-01 -0.56613075E-01 -0.16814016E+00 -0.26455741E+00
 -0.34392259E+00 -0.40496986E+00 -0.44710152E+00 -0.47036089E+00 -0.47538807E+00
 -0.46336079E+00 -0.43592291E+00 -0.39510321E+00 -0.34322735E+00 -0.28282612E+00
 Real Space Part
  0.92252350E+02  0.92212209E+02  0.92091784E+02  0.91891072E+02  0.91610071E+02
  0.91248780E+02  0.90807204E+02  0.90285356E+02  0.89683267E+02  0.89000986E+02
  0.88238592E+02  0.87396196E+02  0.86473956E+02  0.85472081E+02  0.84390845E+02
  0.83230595E+02  0.81991761E+02  0.80674874E+02  0.79280569E+02  0.77809607E+02
  0.76262883E+02  0.74641440E+02  0.72946482E+02  0.71179390E+02  0.69341735E+02
  0.67435289E+02  0.65462041E+02  0.63424208E+02  0.61324247E+02  0.59164871E+02
  0.56949052E+02  0.54680037E+02  0.52361355E+02  0.49996821E+02  0.47590546E+02
  0.45146937E+02  0.42670702E+02  0.40166845E+02  0.37640669E+02  0.35097766E+02
  0.32544009E+02  0.29985543E+02  0.27428769E+02  0.24880329E+02  0.22347078E+02
  0.19836067E+02  0.17354509E+02  0.14909749E+02  0.12509229E+02  0.10160444E+02
  0.78709035E+01  0.56480807E+01  0.34993649E+01  0.14320067E+01 -0.54693702E+00
 -0.24306616E+01 -0.42126741E+01 -0.58868544E+01 -0.74475166E+01 -0.88894699E+01
 -0.10208079E+02 -0.11399321E+02 -0.12459844E+02 -0.13387016E+02 -0.14178971E+02
 -0.14834654E+02 -0.15353855E+02 -0.15737236E+02 -0.15986350E+02 -0.16103654E+02
 -0.16092511E+02 -0.15957180E+02 -0.15702799E+02 -0.15335355E+02 -0.14861648E+02
 -0.14289241E+02 -0.13626402E+02 -0.12882036E+02 -0.12065611E+02 -0.11187074E+02
 -0.10256764E+02 -0.92853185E+01 -0.82835713E+01 -0.72624594E+01 -0.62329170E+01
 -0.52057792E+01 -0.41916806E+01 -0.32009624E+01 -0.22435807E+01 -0.13290309E+01
 -0.46624606E+00  0.33674281E+00  0.10706234E+01  0.17260417E+01  0.23687662E+01
  0.22217247E+01  0.16494640E+01  0.98653655E+00  0.12644631E+00  0.00000000E+00
 Non local Part
           1           2   1.24033371831870     
   5.18583395481799        7.50784486354428        7.50784486354428     
   10.8527582248067     
 Reciprocal Space Part
  0.00000000E+00  0.82859269E+00  0.16360412E+01  0.24015804E+01  0.31051973E+01
  0.37279897E+01  0.42525068E+01  0.46630632E+01  0.49460222E+01  0.50900435E+01
  0.50862903E+01  0.49285914E+01  0.46135579E+01  0.41406490E+01  0.35121892E+01
  0.27333330E+01  0.18119807E+01  0.75864487E+00 -0.41372952E+00 -0.16899881E+01
 -0.30530297E+01 -0.44841030E+01 -0.59631331E+01 -0.74690709E+01 -0.89802600E+01
 -0.10474813E+02 -0.11930994E+02 -0.13327591E+02 -0.14644288E+02 -0.15862010E+02
 -0.16963248E+02 -0.17932359E+02 -0.18755823E+02 -0.19422463E+02 -0.19923625E+02
 -0.20253304E+02 -0.20408226E+02 -0.20387879E+02 -0.20194487E+02 -0.19832942E+02
 -0.19310684E+02 -0.18637534E+02 -0.17825485E+02 -0.16888460E+02 -0.15842028E+02
 -0.14703106E+02 -0.13489629E+02 -0.12220211E+02 -0.10913803E+02 -0.95893430E+01
 -0.82654214E+01 -0.69599551E+01 -0.56898844E+01 -0.44708946E+01 -0.33171703E+01
 -0.22411845E+01 -0.12535279E+01 -0.36278034E+00  0.42457438E+00  0.11041879E+01
  0.16738431E+01  0.21334058E+01  0.24847359E+01  0.27315599E+01  0.28793093E+01
  0.29349295E+01  0.29066630E+01  0.28038151E+01  0.26365043E+01  0.24154072E+01
  0.21515012E+01  0.18558118E+01  0.15391710E+01  0.12119902E+01  0.88405413E+00
  0.56433850E+00  0.26085583E+00 -0.19468778E-01 -0.27088970E+00 -0.48889994E+00
 -0.67025722E+00 -0.81297782E+00 -0.91629967E+00 -0.98061698E+00 -0.10073894E+01
 -0.99902896E+00 -0.95876896E+00 -0.89051881E+00 -0.79870949E+00 -0.68813384E+00
 -0.56378653E+00 -0.43070768E+00 -0.29383437E+00 -0.15786365E+00 -0.27130259E-01
  0.94498330E-01  0.20370738E+00  0.29779950E+00  0.37473752E+00  0.43316560E+00
 Real Space Part
  0.00000000E+00 -0.30161488E+01 -0.60231193E+01 -0.90117557E+01 -0.11972948E+02
 -0.14897652E+02 -0.17776915E+02 -0.20601899E+02 -0.23363899E+02 -0.26054372E+02
 -0.28664956E+02 -0.31187495E+02 -0.33614062E+02 -0.35936985E+02 -0.38148869E+02
 -0.40242620E+02 -0.42211470E+02 -0.44049004E+02 -0.45749180E+02 -0.47306357E+02
 -0.48715321E+02 -0.49971306E+02 -0.51070022E+02 -0.52007676E+02 -0.52781001E+02
 -0.53387276E+02 -0.53824351E+02 -0.54090669E+02 -0.54185287E+02 -0.54107897E+02
 -0.53858848E+02 -0.53439160E+02 -0.52850541E+02 -0.52095403E+02 -0.51176872E+02
 -0.50098799E+02 -0.48865764E+02 -0.47483083E+02 -0.45956805E+02 -0.44293706E+02
 -0.42501287E+02 -0.40587754E+02 -0.38562004E+02 -0.36433604E+02 -0.34212755E+02
 -0.31910265E+02 -0.29537506E+02 -0.27106364E+02 -0.24629192E+02 -0.22118743E+02
 -0.19588108E+02 -0.17050645E+02 -0.14519893E+02 -0.12009493E+02 -0.95330943E+01
 -0.71042587E+01 -0.47363604E+01 -0.24424817E+01 -0.23530537E+00  0.18729938E+01
  0.38708587E+01  0.57474588E+01  0.74927972E+01  0.90978139E+01  0.10554484E+02
  0.11855911E+02  0.12996408E+02  0.13971573E+02  0.14778354E+02  0.15415096E+02
  0.15881577E+02  0.16179036E+02  0.16310171E+02  0.16279133E+02  0.16091498E+02
  0.15754221E+02  0.15275580E+02  0.14665092E+02  0.13933427E+02  0.13092295E+02
  0.12154333E+02  0.11132971E+02  0.10042287E+02  0.88968686E+01  0.77116500E+01
  0.65017639E+01  0.52823773E+01  0.40685412E+01  0.28750334E+01  0.17162270E+01
  0.60591792E+00 -0.44316783E+00 -0.14164692E+01 -0.22992958E+01 -0.31779910E+01
 -0.30012375E+01 -0.22434200E+01 -0.13508617E+01 -0.17389149E+00  0.00000000E+00
 Reciprocal Space Part
  0.00000000E+00 -0.18129995E+00 -0.35269265E+00 -0.50446373E+00 -0.62728115E+00
 -0.71237771E+00 -0.75172344E+00 -0.73818473E+00 -0.66566716E+00 -0.52923973E+00
 -0.32523785E+00 -0.51343437E-01  0.29335955E+00  0.70835513E+00  0.11916916E+01
  0.17400043E+01  0.23485640E+01  0.30113518E+01  0.37211562E+01  0.44696945E+01
  0.52477531E+01  0.60453463E+01  0.68518893E+01  0.76563838E+01  0.84476115E+01
  0.92143322E+01  0.99454836E+01  0.10630378E+02  0.11258894E+02  0.11821655E+02
  0.12310200E+02  0.12717132E+02  0.13036249E+02  0.13262659E+02  0.13392858E+02
  0.13424798E+02  0.13357913E+02  0.13193132E+02  0.12932850E+02  0.12580887E+02
  0.12142406E+02  0.11623821E+02  0.11032669E+02  0.10377473E+02  0.96675827E+01
  0.89129999E+01  0.81241984E+01  0.73119342E+01  0.64870529E+01  0.56602999E+01
  0.48421339E+01  0.40425499E+01  0.32709144E+01  0.25358155E+01  0.18449314E+01
  0.12049194E+01  0.62132755E+00  0.98530121E-01 -0.36031192E+00 -0.75326537E+00
 -0.10796143E+01 -0.13398250E+01 -0.15354890E+01 -0.16692433E+01 -0.17446737E+01
 -0.17662003E+01 -0.17389502E+01 -0.16686205E+01 -0.15613336E+01 -0.14234900E+01
 -0.12616201E+01 -0.10822404E+01 -0.89171567E+00 -0.69613034E+00 -0.50117268E+00
 -0.31203282E+00 -0.13331718E+00  0.31019475E-01  0.17772340E+00  0.30427223E+00
  0.40888627E+00  0.49052138E+00  0.54884418E+00  0.58419120E+00  0.59751348E+00
  0.59030867E+00  0.56454316E+00  0.52256627E+00  0.46701954E+00  0.40074330E+00
  0.32668344E+00  0.24780068E+00  0.16698459E+00  0.86974717E-01  0.10290302E-01
 -0.60829619E-01 -0.12447475E+00 -0.17909983E+00 -0.22354822E+00 -0.25706291E+00
 Real Space Part
  0.00000000E+00  0.19580309E+01  0.39103173E+01  0.58511282E+01  0.77747606E+01
  0.96755523E+01  0.11547897E+02  0.13386256E+02  0.15185176E+02  0.16939300E+02
  0.18643381E+02  0.20292300E+02  0.21881077E+02  0.23404889E+02  0.24859079E+02
  0.26239178E+02  0.27540915E+02  0.28760234E+02  0.29893309E+02  0.30936558E+02
  0.31886662E+02  0.32740574E+02  0.33495541E+02  0.34149116E+02  0.34699170E+02
  0.35143912E+02  0.35481903E+02  0.35712064E+02  0.35833698E+02  0.35846495E+02
  0.35750550E+02  0.35546372E+02  0.35234895E+02  0.34817483E+02  0.34295946E+02
  0.33672537E+02  0.32949965E+02  0.32131390E+02  0.31220429E+02  0.30221150E+02
  0.29138073E+02  0.27976155E+02  0.26740786E+02  0.25437776E+02  0.24073332E+02
  0.22654044E+02  0.21186859E+02  0.19679051E+02  0.18138192E+02  0.16572115E+02
  0.14988874E+02  0.13396701E+02  0.11803956E+02  0.10219079E+02  0.86505298E+01
  0.71067361E+01  0.55960270E+01  0.41265718E+01  0.27063140E+01  0.13429048E+01
  0.43635857E-01 -0.11846280E+01 -0.23355143E+01 -0.34032074E+01 -0.43825092E+01
 -0.52688968E+01 -0.60585748E+01 -0.67485223E+01 -0.73365329E+01 -0.78212473E+01
 -0.82021779E+01 -0.84797244E+01 -0.86551792E+01 -0.87307232E+01 -0.87094118E+01
 -0.85951511E+01 -0.83926621E+01 -0.81074352E+01 -0.77456794E+01 -0.73142549E+01
 -0.68206053E+01 -0.62726786E+01 -0.56788417E+01 -0.50477949E+01 -0.43884752E+01
 -0.37099661E+01 -0.30213987E+01 -0.23318602E+01 -0.16502982E+01 -0.98543972E+00
 -0.34568713E+00  0.26117417E+00  0.82628251E+00  0.13407002E+01  0.18545074E+01
  0.17531269E+01  0.13117875E+01  0.79066793E+00  0.10184378E+00  0.00000000E+00
 PAW radial sets
         347  0.943018041252648     
(5E20.12)                                
 augmentation charges (non sperical)
  0.726920436812E+00 -0.549330977918E+00 -0.943069773053E-01 -0.169272956882E+00 -0.155897867907E+00
 -0.198820200427E+00 -0.549330977918E+00  0.384721266913E+00  0.210645224559E-01  0.314638535195E-01
  0.710450158362E-01  0.757758759663E-01 -0.943069773053E-01  0.210645224559E-01 -0.770199107254E-01
 -0.155218056120E+00 -0.520429703201E-01 -0.982792109405E-01 -0.169272956882E+00  0.314638535195E-01
 -0.155218056120E+00 -0.313294519916E+00 -0.105181676299E+00 -0.197968469526E+00 -0.155897867907E+00
  0.710450158362E-01 -0.520429703201E-01 -0.105181676299E+00 -0.261663207734E-01 -0.576728251425E-01
 -0.198820200427E+00  0.757758759663E-01 -0.982792109405E-01 -0.197968469526E+00 -0.576728251425E-01
 -0.115903561525E+00
 uccopancies in atom
  0.199999999587E+01  0.000000000000E+00  0.000000000000E+00  0.000000000000E+00  0.000000000000E+00
  0.000000000000E+00  0.000000000000E+00  0.000000000000E+00  0.000000000000E+00  0.000000000000E+00
  0.000000000000E+00  0.000000000000E+00  0.000000000000E+00  0.000000000000E+00  0.100000000313E+01
  0.000000000000E+00  0.000000000000E+00  0.000000000000E+00  0.000000000000E+00  0.000000000000E+00
  0.000000000000E+00  0.000000000000E+00  0.000000000000E+00  0.000000000000E+00  0.000000000000E+00
  0.000000000000E+00  0.000000000000E+00  0.000000000000E+00  0.000000000000E+00  0.000000000000E+00
  0.000000000000E+00  0.000000000000E+00  0.000000000000E+00  0.000000000000E+00  0.000000000000E+00
  0.000000000000E+00
 grid
  0.463787181380E-04  0.478868383511E-04  0.494439988712E-04  0.510517943668E-04  0.527118713610E-04
  0.544259299176E-04  0.561957253824E-04  0.580230701807E-04  0.599098356731E-04  0.618579540724E-04
  0.638694204221E-04  0.659462946395E-04  0.680907036253E-04  0.703048434417E-04  0.725909815613E-04
  0.749514591893E-04  0.773886936611E-04  0.799051809178E-04  0.825034980622E-04  0.851863059981E-04
  0.879563521553E-04  0.908164733032E-04  0.937695984556E-04  0.968187518708E-04  0.999670561484E-04
  0.103217735427E-03  0.106574118686E-03  0.110039643156E-03  0.113617857836E-03  0.117312427131E-03
  0.121127134603E-03  0.125065886845E-03  0.129132717484E-03  0.133331791310E-03  0.137667408541E-03
  0.142144009229E-03  0.146766177803E-03  0.151538647768E-03  0.156466306551E-03  0.161554200504E-03
  0.166807540076E-03  0.172231705145E-03  0.177832250531E-03  0.183614911681E-03  0.189585610546E-03
  0.195750461643E-03  0.202115778318E-03  0.208688079211E-03  0.215474094934E-03  0.222480774959E-03
  0.229715294739E-03  0.237185063055E-03  0.244897729601E-03  0.252861192822E-03  0.261083608001E-03
  0.269573395610E-03  0.278339249931E-03  0.287390147968E-03  0.296735358629E-03  0.306384452227E-03
  0.316347310278E-03  0.326634135618E-03  0.337255462856E-03  0.348222169159E-03  0.359545485392E-03
  0.371237007620E-03  0.383308708985E-03  0.395772951963E-03  0.408642501028E-03  0.421930535723E-03
  0.435650664157E-03  0.449816936940E-03  0.464443861573E-03  0.479546417306E-03  0.495140070475E-03
  0.511240790343E-03  0.527865065455E-03  0.545029920521E-03  0.562752933853E-03  0.581052255366E-03
  0.599946625162E-03  0.619455392728E-03  0.639598536748E-03  0.660396685560E-03  0.681871138286E-03
  0.704043886642E-03  0.726937637461E-03  0.750575835944E-03  0.774982689671E-03  0.800183193394E-03
  0.826203154630E-03  0.853069220094E-03  0.880808902984E-03  0.909450611160E-03  0.939023676233E-03
  0.969558383606E-03  0.100108600349E-02  0.103363882292E-02  0.106725017883E-02  0.110195449218E-02
  0.113778730322E-02  0.117478530789E-02  0.121298639537E-02  0.125242968692E-02  0.129315557591E-02
  0.133520576921E-02  0.137862332989E-02  0.142345272134E-02  0.146973985275E-02  0.151753212621E-02
  0.156687848518E-02  0.161782946463E-02  0.167043724283E-02  0.172475569474E-02  0.178084044719E-02
  0.183874893588E-02  0.189854046416E-02  0.196027626377E-02  0.202401955758E-02  0.208983562428E-02
  0.215779186528E-02  0.222795787371E-02  0.230040550568E-02  0.237520895392E-02  0.245244482368E-02
  0.253219221124E-02  0.261453278490E-02  0.269955086861E-02  0.278733352830E-02  0.287797066109E-02
  0.297155508733E-02  0.306818264565E-02  0.316795229111E-02  0.327096619654E-02  0.337732985719E-02
  0.348715219874E-02  0.360054568886E-02  0.371762645240E-02  0.383851439029E-02  0.396333330234E-02
  0.409221101402E-02  0.422527950738E-02  0.436267505618E-02  0.450453836546E-02  0.465101471566E-02
  0.480225411135E-02  0.495841143489E-02  0.511964660503E-02  0.528612474067E-02  0.545801632996E-02
  0.563549740493E-02  0.581874972169E-02  0.600796094664E-02  0.620332484859E-02  0.640504149726E-02
  0.661331746813E-02  0.682836605399E-02  0.705040748337E-02  0.727966914611E-02  0.751638582619E-02
  0.776079994217E-02  0.801316179546E-02  0.827372982666E-02  0.854277088019E-02  0.882056047761E-02
  0.910738309973E-02  0.940353247799E-02  0.970931189523E-02  0.100250344963E-01  0.103510236087E-01
  0.106876130738E-01  0.110351475886E-01  0.113939830589E-01  0.117644869635E-01  0.121470387307E-01
  0.125420301271E-01  0.129498656583E-01  0.133709629835E-01  0.138057533433E-01  0.142546820009E-01
  0.147182086984E-01  0.151968081279E-01  0.156909704168E-01  0.162012016306E-01  0.167280242905E-01
  0.172719779091E-01  0.178336195424E-01  0.184135243605E-01  0.190122862366E-01  0.196305183552E-01
  0.202688538399E-01  0.209279464022E-01  0.216084710103E-01  0.223111245811E-01  0.230366266930E-01
  0.237857203237E-01  0.245591726105E-01  0.253577756361E-01  0.261823472399E-01  0.270337318552E-01
  0.279128013742E-01  0.288204560410E-01  0.297576253732E-01  0.307252691141E-01  0.317243782155E-01
  0.327559758525E-01  0.338211184710E-01  0.349208968703E-01  0.360564373196E-01  0.372289027114E-01
  0.384394937528E-01  0.396894501949E-01  0.409800521021E-01  0.423126211638E-01  0.436885220469E-01
  0.451091637944E-01  0.465760012673E-01  0.480905366356E-01  0.496543209158E-01  0.512689555596E-01
  0.529360940940E-01  0.546574438146E-01  0.564347675338E-01  0.582698853864E-01  0.601646766936E-01
  0.621210818872E-01  0.641411044970E-01  0.662268132028E-01  0.683803439524E-01  0.706039021497E-01
  0.728997649124E-01  0.752702834047E-01  0.777178852446E-01  0.802450769903E-01  0.828544467071E-01
  0.855486666174E-01  0.883304958380E-01  0.912027832050E-01  0.941684701917E-01  0.972305939208E-01
  0.100392290274E+00  0.103656797106E+00  0.107027457556E+00  0.110507723475E+00  0.114101158959E+00
  0.117811444001E+00  0.121642378256E+00  0.125597884936E+00  0.129682014826E+00  0.133898950431E+00
  0.138253010262E+00  0.142748653257E+00  0.147390483346E+00  0.152183254171E+00  0.157131873945E+00
  0.162241410490E+00  0.167517096416E+00  0.172964334488E+00  0.178588703152E+00  0.184395962254E+00
  0.190392058935E+00  0.196583133722E+00  0.202975526815E+00  0.209575784585E+00  0.216390666272E+00
  0.223427150911E+00  0.230692444476E+00  0.238193987263E+00  0.245939461507E+00  0.253936799252E+00
  0.262194190469E+00  0.270720091448E+00  0.279523233458E+00  0.288612631685E+00  0.297997594467E+00
  0.307687732826E+00  0.317692970310E+00  0.328023553158E+00  0.338690060788E+00  0.349703416636E+00
  0.361074899342E+00  0.372816154297E+00  0.384939205572E+00  0.397456468231E+00  0.410380761045E+00
  0.423725319620E+00  0.437503809949E+00  0.451730342410E+00  0.466419486215E+00  0.481586284333E+00
  0.497246268888E+00  0.513415477075E+00  0.530110467574E+00  0.547348337516E+00  0.565146739985E+00
  0.583523902101E+00  0.602498643683E+00  0.622090396525E+00  0.642319224294E+00  0.663205843078E+00
  0.684771642599E+00  0.707038708120E+00  0.730029843062E+00  0.753768592357E+00  0.778279266557E+00
  0.803586966737E+00  0.829717610191E+00  0.856697956982E+00  0.884555637343E+00  0.913319179973E+00
  0.943018041253E+00  0.973682635412E+00  0.100534436567E+01  0.103803565642E+01  0.107178998638E+01
  0.110664192295E+01  0.114262715755E+01  0.117978254221E+01  0.121814612728E+01  0.125775720044E+01
  0.129865632688E+01  0.134088539088E+01  0.138448763869E+01  0.142950772282E+01  0.147599174779E+01
  0.152398731727E+01  0.157354358295E+01  0.162471129476E+01  0.167754285290E+01  0.173209236152E+01
  0.178841568408E+01  0.184657050057E+01  0.190661636662E+01  0.196861477443E+01  0.203262921581E+01
  0.209872524711E+01  0.216697055647E+01  0.223743503304E+01  0.231019083859E+01  0.238531248144E+01
  0.246287689271E+01  0.254296350514E+01  0.262565433441E+01  0.271103406316E+01  0.279919012769E+01
  0.289021280751E+01  0.298419531782E+01
 aepotential
  0.132270845287E+05  0.133669050149E+05  0.134858745309E+05  0.135830494793E+05  0.136576622551E+05
  0.137090880301E+05  0.137368686780E+05  0.137407148901E+05  0.137205141305E+05  0.136763356836E+05
  0.136084299253E+05  0.135172243957E+05  0.134033186596E+05  0.132674781222E+05  0.131106255200E+05
  0.129338204764E+05  0.127382511138E+05  0.125252189466E+05  0.122961145833E+05  0.120524043369E+05
  0.117956080521E+05  0.115272840512E+05  0.112490050881E+05  0.109623432074E+05  0.106688525702E+05
  0.103700533842E+05  0.100674164967E+05  0.976235082726E+04  0.945619809140E+04  0.915021057461E+04
  0.884556148833E+04  0.854332395976E+04  0.824447968011E+04  0.794990891625E+04  0.766039490252E+04
  0.737662322838E+04  0.709918473723E+04  0.682857899698E+04  0.656521857094E+04  0.630943388880E+04
  0.606147885783E+04  0.582153670761E+04  0.558972597282E+04  0.536610668092E+04  0.515068642803E+04
  0.494342635275E+04  0.474424689966E+04  0.455303331231E+04  0.436964081531E+04  0.419389943524E+04
  0.402561845723E+04  0.386459051896E+04  0.371059524311E+04  0.356340261777E+04  0.342277587004E+04
  0.328847410627E+04  0.316025452004E+04  0.303787437102E+04  0.292109264233E+04  0.280967140864E+04
  0.270337706330E+04  0.260198114560E+04  0.250526128290E+04  0.241300153947E+04  0.232499320298E+04
  0.224103457729E+04  0.216093190205E+04  0.208449862487E+04  0.201155630868E+04  0.194193382167E+04
  0.187546783552E+04  0.181200223543E+04  0.175138843119E+04  0.169348455212E+04  0.163815584810E+04
  0.158527409948E+04  0.153471730078E+04  0.148636978185E+04  0.144012150045E+04  0.139586819745E+04
  0.135351080552E+04  0.131295544933E+04  0.127411297984E+04  0.123689894826E+04  0.120123325061E+04
  0.116703987811E+04  0.113424681234E+04  0.110278571693E+04  0.107259179304E+04  0.104360356025E+04
  0.101576272261E+04  0.989013931600E+03  0.963304673593E+03  0.938585097412E+03  0.914807863268E+03
  0.891928010950E+03  0.869902827685E+03  0.848691723167E+03  0.828256093457E+03  0.808559258287E+03
  0.789566292323E+03  0.771243982231E+03  0.753560694357E+03  0.736486305016E+03  0.719992122998E+03
  0.704050791808E+03  0.688636218993E+03  0.673723520848E+03  0.659288968298E+03  0.645309868390E+03
  0.631764561096E+03  0.618632357738E+03  0.605893445803E+03  0.593528895107E+03  0.581520586869E+03
  0.569851151860E+03  0.558503962012E+03  0.547463080680E+03  0.536713208296E+03  0.526239671021E+03
  0.516028377130E+03  0.506065789528E+03  0.496338892055E+03  0.486835166848E+03  0.477542566995E+03
  0.468449494534E+03  0.459544770926E+03  0.450817623257E+03  0.442257658857E+03  0.433854847591E+03
  0.425599506057E+03  0.417482275934E+03  0.409494112270E+03  0.401626267056E+03  0.393870275419E+03
  0.386217941905E+03  0.378661328773E+03  0.371192746021E+03  0.363804737573E+03  0.356490075105E+03
  0.349241746104E+03  0.342052947377E+03  0.334917076238E+03  0.327827724356E+03  0.320778671087E+03
  0.313763877617E+03  0.306777482399E+03  0.299813797568E+03  0.292867300610E+03  0.285932639608E+03
  0.279004622105E+03  0.272078218316E+03  0.265148558538E+03  0.258210931109E+03  0.251260784029E+03
  0.244293724784E+03  0.237305520520E+03  0.230292101983E+03  0.223249562782E+03  0.216174166037E+03
  0.209062344513E+03  0.201910708312E+03  0.194716047370E+03  0.187475339653E+03  0.180185756087E+03
  0.172844670253E+03  0.165449664881E+03  0.157998543622E+03  0.150489340298E+03  0.142920331517E+03
  0.135290049953E+03  0.127597298518E+03  0.119841167361E+03  0.112021050856E+03  0.104136667867E+03
  0.961880831196E+02  0.881757312669E+02  0.801004427860E+02  0.719634727616E+02  0.637665319695E+02
  0.555118207931E+02  0.472020655391E+02  0.388405574648E+02  0.304311936071E+02  0.219785197191E+02
  0.134877730839E+02  0.496492527475E+01 -0.358327808809E+01 -0.121492827905E+02 -0.207247001632E+02
 -0.293002943727E+02 -0.378659883804E+02 -0.464108948291E+02 -0.549233795320E+02 -0.633911651621E+02
 -0.718014824761E+02 -0.801412751582E+02 -0.883974597028E+02 -0.965572356406E+02 -0.104608430047E+03
 -0.112539843661E+03 -0.120341544251E+03 -0.128005024939E+03 -0.135523114329E+03 -0.142889499970E+03
 -0.150097717580E+03 -0.157139489229E+03 -0.164002388588E+03 -0.170666997833E+03 -0.177103993740E+03
 -0.183271937271E+03 -0.189116769748E+03 -0.194574041027E+03 -0.199574467686E+03 -0.204052561686E+03
 -0.207957012536E+03 -0.211260684855E+03 -0.213967935527E+03 -0.216117527380E+03 -0.217780407532E+03
 -0.219052607687E+03 -0.220044428213E+03 -0.220867949529E+03 -0.221625615039E+03 -0.222402444538E+03
 -0.223263117455E+03 -0.224253283918E+03 -0.225403220069E+03 -0.226731872167E+03 -0.228250124277E+03
 -0.229963001169E+03 -0.231871045190E+03 -0.233971231562E+03 -0.236257673703E+03 -0.238722230102E+03
 -0.241355023033E+03 -0.244144848254E+03 -0.247079454594E+03 -0.250145692014E+03 -0.253329539531E+03
 -0.256616033154E+03 -0.259989116231E+03 -0.263431436171E+03 -0.266924114667E+03 -0.270446523296E+03
 -0.273976111945E+03 -0.277488353300E+03 -0.280956891217E+03 -0.284353995157E+03 -0.287651422847E+03
 -0.290821745480E+03 -0.293840058037E+03 -0.296685741186E+03 -0.299343523858E+03 -0.301802564987E+03
 -0.304051871316E+03 -0.306070723193E+03 -0.307814802163E+03 -0.309203156322E+03 -0.310116176645E+03
 -0.310416092432E+03 -0.309993922332E+03 -0.308829624141E+03 -0.307031006889E+03 -0.304809910807E+03
 -0.302392872351E+03 -0.299930676594E+03 -0.297474404277E+03 -0.295011847584E+03 -0.292513439450E+03
 -0.289957678825E+03 -0.287336771467E+03 -0.284652795848E+03 -0.281911903253E+03 -0.279119916838E+03
 -0.276280138215E+03 -0.273392953426E+03 -0.270456453814E+03 -0.267467395335E+03 -0.264422080642E+03
 -0.261317011141E+03 -0.258149283768E+03 -0.254916791438E+03 -0.251618289883E+03 -0.248253379347E+03
 -0.244822445409E+03 -0.241326578798E+03 -0.237767485811E+03 -0.234147407092E+03 -0.230469035354E+03
 -0.226735444846E+03 -0.222950035570E+03 -0.219116478403E+03 -0.215238684452E+03 -0.211320771993E+03
 -0.207367080002E+03 -0.203382114692E+03 -0.199370602558E+03 -0.195337466894E+03 -0.191287833943E+03
 -0.187227022663E+03 -0.183160521569E+03 -0.179093950114E+03 -0.175033005442E+03 -0.170983398124E+03
 -0.166950784192E+03 -0.162940699976E+03 -0.158958508272E+03 -0.155009359314E+03 -0.151098168567E+03
 -0.147229606300E+03 -0.143408095605E+03 -0.139637807087E+03 -0.135922648844E+03 -0.132266245943E+03
 -0.128671911878E+03 -0.125142619133E+03 -0.121680969023E+03 -0.118289174999E+03 -0.114969053266E+03
 -0.111722027070E+03 -0.108549141855E+03 -0.105451082841E+03 -0.102428197568E+03 -0.994805141628E+02
 -0.966077567372E+02 -0.938093547411E+02 -0.910844503294E+02 -0.884319055541E+02 -0.858503152591E+02
 -0.833380309402E+02 -0.808931996198E+02 -0.785138217982E+02 -0.761978215970E+02 -0.739431326552E+02
 -0.717477837788E+02 -0.696099790739E+02 -0.675281628697E+02 -0.655010625037E+02 -0.635277049869E+02
 -0.616074063756E+02 -0.597397349863E+02 -0.579244515014E+02 -0.561614305430E+02 -0.544505699148E+02
 -0.527916954681E+02 -0.511844711702E+02
 core charge-density
  0.113212727208E-02  0.120500098293E-02  0.128255849822E-02  0.136510016026E-02  0.145294550166E-02
  0.154643446474E-02  0.164592869783E-02  0.175181293316E-02  0.186449645145E-02  0.198441463851E-02
  0.211203063966E-02  0.224783711784E-02  0.239235812209E-02  0.254615107281E-02  0.270980887141E-02
  0.288396214164E-02  0.306928161088E-02  0.326648063991E-02  0.347631791015E-02  0.369960027807E-02
  0.393718580693E-02  0.418998698651E-02  0.445897415236E-02  0.474517911655E-02  0.504969902265E-02
  0.537370043849E-02  0.571842370093E-02  0.608518752773E-02  0.647539391241E-02  0.689053331910E-02
  0.733219019483E-02  0.780204881853E-02  0.830189950607E-02  0.883364519272E-02  0.939930841472E-02
  0.100010387136E-01  0.106411204873E-01  0.113219813151E-01  0.120462007817E-01  0.128165198313E-01
  0.136358506804E-01  0.145072873215E-01  0.154341166519E-01  0.164198302612E-01  0.174681369161E-01
  0.185829757801E-01  0.197685304093E-01  0.210292435666E-01  0.223698329000E-01  0.237953075301E-01
  0.253109855975E-01  0.269225128205E-01  0.286358821169E-01  0.304574543460E-01  0.323939802284E-01
  0.344526235054E-01  0.366409854010E-01  0.389671304518E-01  0.414396137741E-01  0.440675098383E-01
  0.468604428249E-01  0.498286186377E-01  0.529828586526E-01  0.563346352842E-01  0.598961094522E-01
  0.636801700340E-01  0.677004753928E-01  0.719714970675E-01  0.765085657214E-01  0.813279194378E-01
  0.864467544615E-01  0.918832784792E-01  0.976567665372E-01  0.103787619691E+00  0.110297426484E+00
  0.117209027356E+00  0.124546582060E+00  0.132335640205E+00  0.140603214985E+00  0.149377860199E+00
  0.158689750640E+00  0.168570765914E+00  0.179054577771E+00  0.190176740999E+00  0.201974787927E+00
  0.214488326573E+00  0.227759142462E+00  0.241831304116E+00  0.256751272202E+00  0.272568012301E+00
  0.289333111254E+00  0.307100896975E+00  0.325928561637E+00  0.345876288079E+00  0.367007379233E+00
  0.389388390357E+00  0.413089263796E+00  0.438183465940E+00  0.464748126001E+00  0.492864176159E+00
  0.522616492576E+00  0.554094036666E+00  0.587389995986E+00  0.622601923961E+00  0.659831877606E+00
  0.699186552277E+00  0.740777412402E+00  0.784720816969E+00  0.831138138483E+00  0.880155873911E+00
  0.931905746015E+00  0.986524793302E+00  0.104415544666E+01  0.110494559058E+01  0.116904860659E+01
  0.123662339653E+01  0.130783438287E+01  0.138285148309E+01  0.146185005522E+01  0.154501081081E+01
  0.163251969207E+01  0.172456770906E+01  0.182135073300E+01  0.192306924132E+01  0.202992800977E+01
  0.214213574696E+01  0.225990466614E+01  0.238344998901E+01  0.251298937616E+01  0.264874227839E+01
  0.279092920334E+01  0.293977089130E+01  0.309548739451E+01  0.325829705380E+01  0.342841536676E+01
  0.360605374168E+01  0.379141813151E+01  0.398470754277E+01  0.418611241430E+01  0.439581286164E+01
  0.461397678318E+01  0.484075782527E+01  0.507629320429E+01  0.532070138490E+01  0.557407961497E+01
  0.583650131941E+01  0.610801335673E+01  0.638863314426E+01  0.667834566038E+01  0.697710033451E+01
  0.728480783851E+01  0.760133679646E+01  0.792651043295E+01  0.826010318396E+01  0.860183729844E+01
  0.895137946290E+01  0.930833748591E+01  0.967225708446E+01  0.100426188186E+02  0.104188352267E+02
  0.108002482182E+02  0.111861267861E+02  0.115756651075E+02  0.119679811039E+02  0.123621155391E+02
  0.127570317367E+02  0.131516160011E+02  0.135446788322E+02  0.139349570220E+02  0.143211167256E+02
  0.147017575966E+02  0.150754180740E+02  0.154405819067E+02  0.157956859925E+02  0.161391295998E+02
  0.164692850329E+02  0.167845097824E+02  0.170831601890E+02  0.173636066267E+02  0.176242501892E+02
  0.178635408329E+02  0.180799969037E+02  0.182722259364E+02  0.184389465798E+02  0.185790114617E+02
  0.186914307609E+02  0.187753962128E+02  0.188303052252E+02  0.188557847357E+02  0.188517143965E+02
  0.188182486248E+02  0.187558370192E+02  0.186652426033E+02  0.185475573277E+02  0.184042142401E+02
  0.182369957193E+02  0.180480371708E+02  0.178398255924E+02  0.176151924485E+02  0.173773003379E+02
  0.171296230046E+02  0.168759183226E+02  0.166201939928E+02  0.163666658112E+02  0.161197085097E+02
  0.158837993320E+02  0.156634546782E+02  0.154631603392E+02  0.152872960345E+02  0.151400551622E+02
  0.150253608735E+02  0.149467797736E+02  0.149074347394E+02  0.149099185519E+02  0.149562102020E+02
  0.150475959015E+02  0.151845969705E+02  0.153669068640E+02  0.155933396399E+02  0.158617921365E+02
  0.161692220097E+02  0.165116435730E+02  0.168841430771E+02  0.172809146649E+02  0.176953177874E+02
  0.181199563748E+02  0.185467795815E+02  0.189672034194E+02  0.193722520722E+02  0.197527171041E+02
  0.200993321629E+02  0.204029601588E+02  0.206547892992E+02  0.208465338181E+02  0.209706347794E+02
  0.210204559595E+02  0.209904695607E+02  0.208764263760E+02  0.206755050253E+02  0.203864350524E+02
  0.200095889853E+02  0.195470389665E+02  0.190025742290E+02  0.183816765487E+02  0.176914518258E+02
  0.169405171349E+02  0.161388439084E+02  0.152975593534E+02  0.144287097159E+02  0.135449905328E+02
  0.126594504959E+02  0.117851769118E+02  0.109349718742E+02  0.101210290802E+02  0.935462161637E+01
  0.864581092287E+01  0.800318648883E+01  0.743364477196E+01  0.694221416316E+01  0.653193167786E+01
  0.620377564916E+01  0.595665786507E+01  0.578747854791E+01  0.569124642482E+01  0.566126390721E+01
  0.568937163992E+01  0.576623892001E+01  0.588168221231E+01  0.602499633768E+01  0.618528779342E+01
  0.635180195695E+01  0.651423541629E+01  0.666302367072E+01  0.678959434493E+01  0.688657704432E+01
  0.694796285586E+01  0.696920898893E+01  0.694728686765E+01  0.688067481128E+01  0.676929902799E+01
  0.661442880017E+01  0.641853341331E+01  0.618510946478E+01  0.591848775505E+01  0.562362900332E+01
  0.530591721246E+01  0.497095871368E+01  0.462439383990E+01  0.427172687961E+01  0.391817857721E+01
  0.356856410103E+01  0.322719789172E+01  0.289782565610E+01  0.258358273711E+01  0.228697704211E+01
  0.200989395552E+01  0.175362071642E+01  0.151888599182E+01  0.130591200660E+01  0.111447538641E+01
  0.943973382348E+00  0.793492403277E+00  0.661876112393E+00  0.547790758316E+00  0.449785863550E+00
  0.366348859732E+00  0.295952716447E+00  0.237096038713E+00  0.188335491244E+00  0.148310734235E+00
  0.115762319248E+00  0.895431928763E-01  0.686245922820E-01  0.520971949507E-01  0.391684117960E-01
  0.291566958415E-01  0.214836865307E-01  0.156649309549E-01  0.112998267295E-01  0.806132483266E-02
  0.568582195405E-02  0.396356671653E-02  0.272980726404E-02  0.185682236187E-02  0.124690611594E-02
  0.826318389796E-03  0.540168647572E-03  0.348169300091E-03  0.221174204024E-03  0.138407016332E-03
  0.852807851872E-04  0.517126373690E-04  0.308440028617E-04  0.180860027800E-04  0.104201627613E-04
  0.589551055331E-05  0.327363792734E-05  0.178295877665E-05  0.951883420080E-06  0.497827569493E-06
  0.254881077989E-06  0.127661388386E-06  0.625076401169E-07  0.298974582423E-07  0.139581037531E-07
  0.635564899954E-08  0.282014773921E-08
 kinetic energy-density
  0.126687627224E+04  0.127345898229E+04  0.128032281937E+04  0.128747698057E+04  0.129493123167E+04
  0.130269577345E+04  0.131078114880E+04  0.131919843770E+04  0.132795916248E+04  0.133707542003E+04
  0.134655988304E+04  0.135642572251E+04  0.136668684145E+04  0.137735776619E+04  0.138845377236E+04
  0.139999078541E+04  0.141198565742E+04  0.142445600568E+04  0.143742032282E+04  0.145089803750E+04
  0.146490959668E+04  0.147947640956E+04  0.149462099391E+04  0.151036699216E+04  0.152673921845E+04
  0.154376373896E+04  0.156146787916E+04  0.157988040808E+04  0.159903139714E+04  0.161895246448E+04
  0.163967677949E+04  0.166123916088E+04  0.168367611766E+04  0.170702593458E+04  0.173132881012E+04
  0.175662687716E+04  0.178296435601E+04  0.181038765338E+04  0.183894543709E+04  0.186868878657E+04
  0.189967130896E+04  0.193194926324E+04  0.196558170648E+04  0.200063063935E+04  0.203716116264E+04
  0.207524164233E+04  0.211494388487E+04  0.215634332155E+04  0.219951920439E+04  0.224455481309E+04
  0.229153766944E+04  0.234055977393E+04  0.239171784183E+04  0.244511356361E+04  0.250085386980E+04
  0.255905122406E+04  0.261982391434E+04  0.268329637166E+04  0.274959950850E+04  0.281887105211E+04
  0.289125594198E+04  0.296690668318E+04  0.304598378211E+04  0.312865615698E+04  0.321510160781E+04
  0.330550726331E+04  0.340007012542E+04  0.349899751570E+04  0.360250769962E+04  0.371083042565E+04
  0.382420753923E+04  0.394289357259E+04  0.406715652570E+04  0.419727840399E+04  0.433355604118E+04
  0.447630188588E+04  0.462584467328E+04  0.478253041100E+04  0.494672308115E+04  0.511880571224E+04
  0.529918114825E+04  0.548827322669E+04  0.568652758475E+04  0.589441288788E+04  0.611242185108E+04
  0.634107240575E+04  0.658090886553E+04  0.683250318722E+04  0.709645620542E+04  0.737339893888E+04
  0.766399396347E+04  0.796893678240E+04  0.828895725485E+04  0.862482103985E+04  0.897733112023E+04
  0.934732929582E+04  0.973569775202E+04  0.101433606386E+05  0.105712856448E+05  0.110204856190E+05
  0.114920201974E+05  0.119869973944E+05  0.125065752379E+05  0.130519633585E+05  0.136244245086E+05
  0.142252762448E+05  0.148558922302E+05  0.155177036921E+05  0.162122009380E+05  0.169409343797E+05
  0.177055157639E+05  0.185076192262E+05  0.193489820514E+05  0.202314053094E+05  0.211567544533E+05
  0.221269593956E+05  0.231440144658E+05  0.242099781673E+05  0.253269723646E+05  0.264971812535E+05
  0.277228498701E+05  0.290062821178E+05  0.303498383121E+05  0.317559321159E+05  0.332270268673E+05
  0.347656312957E+05  0.363742944104E+05  0.380555996397E+05  0.398121580982E+05  0.416466009433E+05
  0.435615706994E+05  0.455597115359E+05  0.476436584145E+05  0.498160249715E+05  0.520793901979E+05
  0.544362836889E+05  0.568891694720E+05  0.594404284209E+05  0.620923389685E+05  0.648470563570E+05
  0.677065900852E+05  0.706727797322E+05  0.737472689760E+05  0.769314778592E+05  0.802265732931E+05
  0.836334377137E+05  0.871526361058E+05  0.907843811921E+05  0.945284971204E+05  0.983843813882E+05
  0.102350965786E+06  0.106426675503E+06  0.110609387763E+06  0.114896389209E+06  0.119284332974E+06
  0.123769195481E+06  0.128346233357E+06  0.133009941016E+06  0.137754009110E+06  0.142571284898E+06
  0.147453734306E+06  0.152392407235E+06  0.157377406157E+06  0.162397858872E+06  0.167441896585E+06
  0.172496637602E+06  0.177548177971E+06  0.182581589772E+06  0.187580928106E+06  0.192529247566E+06
  0.197408629495E+06  0.202200220467E+06  0.206884283565E+06  0.211440262579E+06  0.215846860609E+06
  0.220082133226E+06  0.224123597110E+06  0.227948354430E+06  0.231533233216E+06  0.234854943831E+06
  0.237890251252E+06  0.240616162766E+06  0.243010130252E+06  0.245050266018E+06  0.246715570668E+06
  0.247986171348E+06  0.248843567969E+06  0.249270885043E+06  0.249253126006E+06  0.248777426738E+06
  0.247833304530E+06  0.246412898445E+06  0.244511196648E+06  0.242126246203E+06  0.239259340362E+06
  0.235915178694E+06  0.232101994956E+06  0.227831648130E+06  0.223119672086E+06  0.217985279796E+06
  0.212451318589E+06  0.206544173738E+06  0.200293618411E+06  0.193732609128E+06  0.186897027006E+06
  0.179825366194E+06  0.172558372055E+06  0.165138632771E+06  0.157610128751E+06  0.150017745664E+06
  0.142406753477E+06  0.134822265582E+06  0.127308674754E+06  0.119909082372E+06  0.112664728610E+06
  0.105614437400E+06  0.987940913305E+05  0.922361521887E+05  0.859692414583E+05  0.800177921235E+05
  0.744017793407E+05  0.691365338859E+05  0.642326393275E+05  0.596959117194E+05  0.555274593605E+05
  0.517238194022E+05  0.482771679290E+05  0.451755994838E+05  0.424034714933E+05  0.399418075187E+05
  0.377687518838E+05  0.358600666623E+05  0.341896605081E+05  0.327301379921E+05  0.314533573662E+05
  0.303309846144E+05  0.293350320570E+05  0.284383701438E+05  0.276152023753E+05  0.268414942713E+05
  0.260953485250E+05  0.253573202264E+05  0.246106671394E+05  0.238415316531E+05  0.230390523269E+05
  0.221954043883E+05  0.213057696329E+05  0.203682376000E+05  0.193836410287E+05  0.183553299699E+05
  0.172888904477E+05  0.161918153768E+05  0.150731374725E+05  0.139430362688E+05  0.128124333503E+05
  0.116925912333E+05  0.105947308168E+05  0.952967666915E+04  0.850753819109E+04  0.753741564217E+04
  0.662713898452E+04  0.578303153526E+04  0.500973024381E+04  0.431009205692E+04  0.368521307215E+04
  0.313455464096E+04  0.265613305231E+04  0.224672239158E+04  0.190204968407E+04  0.161698980258E+04
  0.138577019269E+04  0.120218480936E+04  0.105980890063E+04  0.952204684503E+03  0.873109390198E+03
  0.816599148485E+03  0.777223945743E+03  0.750110558501E+03  0.731032052789E+03  0.716444213247E+03
  0.703491042839E+03  0.689982759479E+03  0.674351078462E+03  0.655586870190E+03  0.633165815587E+03
  0.606967320511E+03  0.577191484400E+03  0.544278356231E+03  0.508832702850E+03  0.471556775810E+03
  0.433192418588E+03  0.394473919424E+03  0.356090851408E+03  0.318661119792E+03  0.282713132565E+03
  0.248676209839E+03  0.216877004067E+03  0.187542859074E+03  0.160807930150E+03  0.136722978981E+03
  0.115266908855E+03  0.963592388604E+02  0.798727342445E+02  0.656455715437E+02  0.534925730951E+02
  0.432151909017E+02  0.346100492351E+02  0.274759670842E+02  0.216194726491E+02  0.168588927906E+02
  0.130271504570E+02  0.997343531593E+01  0.756392829628E+01  0.568176384703E+01  0.422640643080E+01
  0.311260352945E+01  0.226905861597E+01  0.163694598588E+01  0.116836705979E+01  0.824825738958E+00
  0.575779936149E+00  0.397308125132E+00  0.270914158187E+00  0.182480927629E+00  0.121373623222E+00
  0.796861845346E-01  0.516197275129E-01  0.329788654191E-01  0.207705406574E-01  0.128898632551E-01
  0.787817069786E-02  0.473979226097E-02  0.280558095154E-02  0.163298188511E-02  0.934100209837E-03
  0.524820344721E-03  0.289452625360E-03  0.156614233817E-03  0.830809356084E-04  0.431826219167E-04
  0.219768741871E-04  0.109439404650E-04  0.532871896696E-05  0.253507874107E-05  0.117745641266E-05
  0.533499998569E-06  0.235611994829E-06
 mkinetic energy-density pseudized
  0.991968634384E-06  0.105753022048E-05  0.112742492901E-05  0.120193914641E-05  0.128137818710E-05
  0.136606754447E-05  0.145635422450E-05  0.155260816768E-05  0.165522376472E-05  0.176462147258E-05
  0.188124953719E-05  0.200558583017E-05  0.213813980678E-05  0.227945459342E-05  0.243010921300E-05
  0.259072095746E-05  0.276194791701E-05  0.294449167663E-05  0.313910019073E-05  0.334657084782E-05
  0.356775373768E-05  0.380355513461E-05  0.405494121071E-05  0.432294199469E-05  0.460865559234E-05
  0.491325268585E-05  0.523798133061E-05  0.558417206895E-05  0.595324338191E-05  0.634670750133E-05
  0.676617660603E-05  0.721336942757E-05  0.769011829255E-05  0.819837663039E-05  0.874022697730E-05
  0.931788950924E-05  0.993373113885E-05  0.105902752136E-04  0.112902118551E-04  0.120364089812E-04
  0.128319240574E-04  0.136800166243E-04  0.145841616530E-04  0.155480637840E-04  0.165756725057E-04
  0.176711983379E-04  0.188391300831E-04  0.200842532196E-04  0.214116695090E-04  0.228268179000E-04
  0.243354968143E-04  0.259438879047E-04  0.276585813837E-04  0.294866030261E-04  0.314354429564E-04
  0.335130863385E-04  0.357280460942E-04  0.380893977836E-04  0.406068167913E-04  0.432906179699E-04
  0.461517979039E-04  0.492020799667E-04  0.524539623558E-04  0.559207693023E-04  0.596167056652E-04
  0.635569151339E-04  0.677575422776E-04  0.722357986948E-04  0.770100335361E-04  0.820998086866E-04
  0.875259789179E-04  0.933107773377E-04  0.994779064860E-04  0.106052635453E-03  0.113061903415E-03
  0.120534430012E-03  0.128500833023E-03  0.136993753818E-03  0.146047991096E-03  0.155700643470E-03
  0.165991261470E-03  0.176962009595E-03  0.188657839069E-03  0.201126672027E-03  0.214419597856E-03
  0.228591082529E-03  0.243699191766E-03  0.259805828942E-03  0.276976988719E-03  0.295283027447E-03
  0.314798951427E-03  0.335604724227E-03  0.357785594311E-03  0.381432444316E-03  0.406642163420E-03
  0.433518044303E-03  0.462170206364E-03  0.492716046884E-03  0.525280722023E-03  0.559997659594E-03
  0.597009105727E-03  0.636466707659E-03  0.678532135037E-03  0.723377742282E-03  0.771187274717E-03
  0.822156621368E-03  0.876494617501E-03  0.934423900203E-03  0.996181820491E-03  0.106202141570E-02
  0.113221244611E-02  0.120704250012E-02  0.128681817235E-02  0.137186631973E-02  0.146253540044E-02
  0.155919690141E-02  0.166224686013E-02  0.177210748698E-02  0.188922889474E-02  0.201409094245E-02
  0.214720520094E-02  0.228911704839E-02  0.244040790419E-02  0.260169761044E-02  0.277364697074E-02
  0.295696045674E-02  0.315238909343E-02  0.336073353500E-02  0.358284734388E-02  0.381964048640E-02
  0.407208305924E-02  0.434120926202E-02  0.462812163227E-02  0.493399555995E-02  0.526008410021E-02
  0.560772310381E-02  0.597833668631E-02  0.637344305832E-02  0.679466074061E-02  0.724371518950E-02
  0.772244585952E-02  0.823281373214E-02  0.877690934142E-02  0.935696132910E-02  0.997534556422E-02
  0.106345948643E-01  0.113374093577E-01  0.120866675295E-01  0.128854379956E-01  0.137369920532E-01
  0.146448170589E-01  0.156126306878E-01  0.166443961332E-01  0.177443383068E-01  0.189169611070E-01
  0.201670658236E-01  0.214997707546E-01  0.229205321144E-01  0.244351663179E-01  0.260498737300E-01
  0.277712639783E-01  0.296063829284E-01  0.315627414338E-01  0.336483459733E-01  0.358717313007E-01
  0.382419952385E-01  0.407688357540E-01  0.434625904665E-01  0.463342787452E-01  0.493956465644E-01
  0.526592142955E-01  0.561383276268E-01  0.598472118119E-01  0.638010294640E-01  0.680159421228E-01
  0.725091758382E-01  0.772990910293E-01  0.824052568923E-01  0.878485306488E-01  0.936511419451E-01
  0.998367827292E-01  0.106430702955E+00  0.113459812486E+00  0.120952789579E+00  0.128940196388E+00
  0.137454601894E+00  0.146530712762E+00  0.156205512594E+00  0.166518410110E+00  0.177511396812E+00
  0.189229214707E+00  0.201719534714E+00  0.215033146398E+00  0.229224159723E+00  0.244350219542E+00
  0.260472733592E+00  0.277657114787E+00  0.295973038655E+00  0.315494716800E+00  0.336301187313E+00
  0.358476623100E+00  0.382110659142E+00  0.407298739731E+00  0.434142486796E+00  0.462750090442E+00
  0.493236722894E+00  0.525724977066E+00  0.560345331004E+00  0.597236639508E+00  0.636546654239E+00
  0.678432573665E+00  0.723061624195E+00  0.770611673878E+00  0.821271880035E+00  0.875243372151E+00
  0.932739971387E+00  0.993988947948E+00  0.105923181753E+01  0.112872517798E+01  0.120274158710E+01
  0.128157048253E+01  0.136551914424E+01  0.145491370019E+01  0.155010017507E+01  0.165144558217E+01
  0.175933905747E+01  0.187419303499E+01  0.199644446161E+01  0.212655604897E+01  0.226501755928E+01
  0.241234712084E+01  0.256909256810E+01  0.273583279980E+01  0.291317914722E+01  0.310177674307E+01
  0.330230587947E+01  0.351548334140E+01  0.374206369958E+01  0.398284054376E+01  0.423864763442E+01
  0.451035994709E+01  0.479889457952E+01  0.510521148736E+01  0.543031400885E+01  0.577524913325E+01
  0.614110746135E+01  0.652902279916E+01  0.694017131825E+01  0.737577020698E+01  0.783707572776E+01
  0.832538058450E+01  0.884201049319E+01  0.938831983588E+01  0.996568626509E+01  0.105755041109E+02
  0.112191764285E+02  0.118981055060E+02  0.126136816392E+02  0.133672699580E+02  0.141601950762E+02
  0.149937233176E+02  0.158690422550E+02  0.167872372843E+02  0.177492649459E+02  0.187559226929E+02
  0.198078148052E+02  0.209053141509E+02  0.220485195052E+02  0.232372081622E+02  0.244707836088E+02
  0.257482180833E+02  0.270679899150E+02  0.284280156400E+02  0.298255770185E+02  0.312572432453E+02
  0.327187888508E+02  0.342051080518E+02  0.357101266229E+02  0.372267127391E+02  0.387465886892E+02
  0.402602458909E+02  0.417568662467E+02  0.432242535812E+02  0.446487796862E+02  0.460153503670E+02
  0.473073978220E+02  0.485069066783E+02  0.495944820079E+02  0.505494686263E+02  0.513501318477E+02
  0.519739105566E+02  0.523977538264E+02  0.525985522163E+02  0.525536741255E+02  0.522416159168E+02
  0.516427716883E+02  0.507403242132E+02  0.495212523438E+02  0.479774416731E+02  0.461068740871E+02
  0.439148576477E+02  0.414152407607E+02  0.386315336857E+02  0.355978363142E+02  0.323594443490E+02
  0.289729777182E+02  0.255058472126E+02  0.220348509042E+02  0.186436751508E+02  0.154190716614E+02
  0.124454996385E+02  0.979806957901E+01  0.753371361668E+01  0.568064800088E+01  0.422640643080E+01
  0.311260352945E+01  0.226905861597E+01  0.163694598588E+01  0.116836705979E+01  0.824825738958E+00
  0.575779936149E+00  0.397308125132E+00  0.270914158187E+00  0.182480927629E+00  0.121373623222E+00
  0.796861845346E-01  0.516197275129E-01  0.329788654191E-01  0.207705406574E-01  0.128898632551E-01
  0.787817069786E-02  0.473979226097E-02  0.280558095154E-02  0.163298188511E-02  0.934100209837E-03
  0.524820344721E-03  0.289452625360E-03  0.156614233817E-03  0.830809356084E-04  0.431826219167E-04
  0.219768741871E-04  0.109439404650E-04  0.532871896696E-05  0.253507874107E-05  0.117745641266E-05
  0.533499998569E-06  0.235611994829E-06
 local pseudopotential core
 -0.405498081457E+03 -0.405499956919E+03 -0.405501773307E+03 -0.405503532484E+03 -0.405505236248E+03
 -0.405506886345E+03 -0.405508484465E+03 -0.405510032243E+03 -0.405511531265E+03 -0.405512983064E+03
 -0.405514389129E+03 -0.405515750898E+03 -0.405517069763E+03 -0.405518347077E+03 -0.405519584147E+03
 -0.405520782239E+03 -0.405521942579E+03 -0.405523066356E+03 -0.405524154718E+03 -0.405525208779E+03
 -0.405526229620E+03 -0.405527218284E+03 -0.405528175781E+03 -0.405529103094E+03 -0.405530001170E+03
 -0.405530870927E+03 -0.405531713254E+03 -0.405532529014E+03 -0.405533319041E+03 -0.405534084142E+03
 -0.405534825098E+03 -0.405535542668E+03 -0.405536237584E+03 -0.405536910557E+03 -0.405537562273E+03
 -0.405538193398E+03 -0.405538804575E+03 -0.405539396429E+03 -0.405539969563E+03 -0.405540524561E+03
 -0.405541061988E+03 -0.405541582392E+03 -0.405542086304E+03 -0.405542574234E+03 -0.405543046678E+03
 -0.405543504119E+03 -0.405543947018E+03 -0.405544375826E+03 -0.405544790976E+03 -0.405545192888E+03
 -0.405545581970E+03 -0.405545958612E+03 -0.405546323196E+03 -0.405546676087E+03 -0.405547017639E+03
 -0.405547348196E+03 -0.405547668088E+03 -0.405547977633E+03 -0.405548277139E+03 -0.405548566905E+03
 -0.405548847214E+03 -0.405549118345E+03 -0.405549380563E+03 -0.405549634123E+03 -0.405549879272E+03
 -0.405550116247E+03 -0.405550345275E+03 -0.405550566574E+03 -0.405550780355E+03 -0.405550986816E+03
 -0.405551186151E+03 -0.405551378542E+03 -0.405551564163E+03 -0.405551743182E+03 -0.405551915756E+03
 -0.405552082034E+03 -0.405552242158E+03 -0.405552396262E+03 -0.405552544470E+03 -0.405552686898E+03
 -0.405552823657E+03 -0.405552954845E+03 -0.405553080554E+03 -0.405553200869E+03 -0.405553315865E+03
 -0.405553425606E+03 -0.405553530152E+03 -0.405553629551E+03 -0.405553723843E+03 -0.405553813057E+03
 -0.405553897214E+03 -0.405553976325E+03 -0.405554050390E+03 -0.405554119400E+03 -0.405554183334E+03
 -0.405554242160E+03 -0.405554295834E+03 -0.405554344300E+03 -0.405554387490E+03 -0.405554425323E+03
 -0.405554457702E+03 -0.405554484519E+03 -0.405554505647E+03 -0.405554520945E+03 -0.405554530257E+03
 -0.405554533407E+03 -0.405554530201E+03 -0.405554520425E+03 -0.405554503846E+03 -0.405554480208E+03
 -0.405554449233E+03 -0.405554410616E+03 -0.405554364030E+03 -0.405554309117E+03 -0.405554245494E+03
 -0.405554172745E+03 -0.405554090421E+03 -0.405553998039E+03 -0.405553895080E+03 -0.405553780987E+03
 -0.405553655159E+03 -0.405553516953E+03 -0.405553365680E+03 -0.405553200598E+03 -0.405553020915E+03
 -0.405552825784E+03 -0.405552614295E+03 -0.405552385476E+03 -0.405552138287E+03 -0.405551871617E+03
 -0.405551584277E+03 -0.405551274998E+03 -0.405550942421E+03 -0.405550585097E+03 -0.405550201478E+03
 -0.405549789910E+03 -0.405549348628E+03 -0.405548875748E+03 -0.405548369258E+03 -0.405547827010E+03
 -0.405547246714E+03 -0.405546625924E+03 -0.405545962033E+03 -0.405545252257E+03 -0.405544493626E+03
 -0.405543682975E+03 -0.405542816923E+03 -0.405541891868E+03 -0.405540903965E+03 -0.405539849117E+03
 -0.405538722950E+03 -0.405537520803E+03 -0.405536237704E+03 -0.405534868350E+03 -0.405533407089E+03
 -0.405531847890E+03 -0.405530184327E+03 -0.405528409543E+03 -0.405526516232E+03 -0.405524496599E+03
 -0.405522342337E+03 -0.405520044586E+03 -0.405517593902E+03 -0.405514980215E+03 -0.405512192788E+03
 -0.405509220175E+03 -0.405506050174E+03 -0.405502669773E+03 -0.405499065103E+03 -0.405495221376E+03
 -0.405491122830E+03 -0.405486752657E+03 -0.405482092941E+03 -0.405477124584E+03 -0.405471827224E+03
 -0.405466179155E+03 -0.405460157238E+03 -0.405453736806E+03 -0.405446891565E+03 -0.405439593484E+03
 -0.405431812683E+03 -0.405423517311E+03 -0.405414673414E+03 -0.405405244800E+03 -0.405395192890E+03
 -0.405384476561E+03 -0.405373051979E+03 -0.405360872421E+03 -0.405347888087E+03 -0.405334045893E+03
 -0.405319289260E+03 -0.405303557885E+03 -0.405286787492E+03 -0.405268909578E+03 -0.405249851131E+03
 -0.405229534338E+03 -0.405207876268E+03 -0.405184788543E+03 -0.405160176973E+03 -0.405133941188E+03
 -0.405105974225E+03 -0.405076162103E+03 -0.405044383368E+03 -0.405010508601E+03 -0.404974399908E+03
 -0.404935910363E+03 -0.404894883428E+03 -0.404851152329E+03 -0.404804539394E+03 -0.404754855349E+03
 -0.404701898573E+03 -0.404645454303E+03 -0.404585293788E+03 -0.404521173397E+03 -0.404452833665E+03
 -0.404379998281E+03 -0.404302373022E+03 -0.404219644609E+03 -0.404131479506E+03 -0.404037522641E+03
 -0.403937396050E+03 -0.403830697440E+03 -0.403716998675E+03 -0.403595844164E+03 -0.403466749159E+03
 -0.403329197963E+03 -0.403182642025E+03 -0.403026497936E+03 -0.402860145314E+03 -0.402682924575E+03
 -0.402494134578E+03 -0.402293030158E+03 -0.402078819524E+03 -0.401850661527E+03 -0.401607662797E+03
 -0.401348874740E+03 -0.401073290397E+03 -0.400779841163E+03 -0.400467393365E+03 -0.400134744694E+03
 -0.399780620501E+03 -0.399403669960E+03 -0.399002462089E+03 -0.398575481653E+03 -0.398121124944E+03
 -0.397637695461E+03 -0.397123399492E+03 -0.396576341623E+03 -0.395994520197E+03 -0.395375822737E+03
 -0.394718021384E+03 -0.394018768358E+03 -0.393275591510E+03 -0.392485889998E+03 -0.391646930148E+03
 -0.390755841563E+03 -0.389809613555E+03 -0.388805091979E+03 -0.387738976571E+03 -0.386607818884E+03
 -0.385408020955E+03 -0.384135834815E+03 -0.382787363010E+03 -0.381358560276E+03 -0.379845236551E+03
 -0.378243061517E+03 -0.376547570883E+03 -0.374754174625E+03 -0.372858167439E+03 -0.370854741653E+03
 -0.368739002886E+03 -0.366505988731E+03 -0.364150690774E+03 -0.361668080274E+03 -0.359053137819E+03
 -0.356300887319E+03 -0.353406434681E+03 -0.350365011541E+03 -0.347172024435E+03 -0.343823109828E+03
 -0.340314195422E+03 -0.336641568234E+03 -0.332801949970E+03 -0.328792580311E+03 -0.324611308817E+03
 -0.320256696251E+03 -0.315728126259E+03 -0.311025928369E+03 -0.306151513183E+03 -0.301107520210E+03
 -0.295897977550E+03 -0.290528470034E+03 -0.285006306875E+03 -0.279340669235E+03 -0.273542698294E+03
 -0.267625449730E+03 -0.261603584953E+03 -0.255492593523E+03 -0.249307273001E+03 -0.243059230607E+03
 -0.236753535262E+03 -0.230385639463E+03 -0.223941343731E+03 -0.217403956747E+03 -0.210771650087E+03
 -0.204081345295E+03 -0.197417680831E+03 -0.190846623671E+03 -0.184215055576E+03 -0.177069438115E+03
 -0.169279464295E+03 -0.163127783682E+03 -0.157348932429E+03 -0.151878261470E+03 -0.146738652756E+03
 -0.141970009408E+03 -0.137589683965E+03 -0.133598690899E+03 -0.130036118996E+03 -0.125939501872E+03
 -0.121972318296E+03 -0.118130370703E+03 -0.114409624267E+03 -0.110806198157E+03 -0.107316352638E+03
 -0.103936478816E+03 -0.100663091533E+03 -0.974928223327E+02 -0.944224136842E+02 -0.914487140454E+02
 -0.885686734410E+02 -0.857793395192E+02 -0.830778526899E+02 -0.804614482791E+02 -0.779274433717E+02
 -0.754732433586E+02 -0.730963346626E+02 -0.707942829709E+02 -0.685647306702E+02 -0.664053943963E+02
 -0.643140628674E+02 -0.622885942837E+02 -0.603269144135E+02 -0.584270143456E+02 -0.565869484443E+02
 -0.548048323596E+02 -0.530788410887E+02
 pspotential valence only
 -0.312228887136E+03 -0.312230762610E+03 -0.312232579013E+03 -0.312234338204E+03 -0.312236041984E+03
 -0.312237692097E+03 -0.312239290234E+03 -0.312240838031E+03 -0.312242337073E+03 -0.312243788894E+03
 -0.312245194982E+03 -0.312246556774E+03 -0.312247875666E+03 -0.312249153008E+03 -0.312250390107E+03
 -0.312251588230E+03 -0.312252748604E+03 -0.312253872416E+03 -0.312254960816E+03 -0.312256014918E+03
 -0.312257035802E+03 -0.312258024512E+03 -0.312258982059E+03 -0.312259909424E+03 -0.312260807555E+03
 -0.312261677372E+03 -0.312262519763E+03 -0.312263335590E+03 -0.312264125689E+03 -0.312264890867E+03
 -0.312265631905E+03 -0.312266349563E+03 -0.312267044572E+03 -0.312267717644E+03 -0.312268369466E+03
 -0.312269000703E+03 -0.312269612001E+03 -0.312270203983E+03 -0.312270777254E+03 -0.312271332397E+03
 -0.312271869980E+03 -0.312272390551E+03 -0.312272894638E+03 -0.312273382757E+03 -0.312273855403E+03
 -0.312274313057E+03 -0.312274756184E+03 -0.312275185235E+03 -0.312275600645E+03 -0.312276002834E+03
 -0.312276392210E+03 -0.312276769167E+03 -0.312277134085E+03 -0.312277487334E+03 -0.312277829267E+03
 -0.312278160230E+03 -0.312278480554E+03 -0.312278790561E+03 -0.312279090560E+03 -0.312279380849E+03
 -0.312279661718E+03 -0.312279933445E+03 -0.312280196298E+03 -0.312280450536E+03 -0.312280696407E+03
 -0.312280934152E+03 -0.312281164001E+03 -0.312281386176E+03 -0.312281600889E+03 -0.312281808345E+03
 -0.312282008740E+03 -0.312282202261E+03 -0.312282389088E+03 -0.312282569392E+03 -0.312282743335E+03
 -0.312282911074E+03 -0.312283072755E+03 -0.312283228518E+03 -0.312283378495E+03 -0.312283522810E+03
 -0.312283661579E+03 -0.312283794911E+03 -0.312283922907E+03 -0.312284045658E+03 -0.312284163251E+03
 -0.312284275762E+03 -0.312284383261E+03 -0.312284485807E+03 -0.312284583454E+03 -0.312284676245E+03
 -0.312284764216E+03 -0.312284847393E+03 -0.312284925793E+03 -0.312284999424E+03 -0.312285068285E+03
 -0.312285132362E+03 -0.312285191636E+03 -0.312285246071E+03 -0.312285295625E+03 -0.312285340242E+03
 -0.312285379854E+03 -0.312285414382E+03 -0.312285443730E+03 -0.312285467793E+03 -0.312285486447E+03
 -0.312285499558E+03 -0.312285506970E+03 -0.312285508515E+03 -0.312285504005E+03 -0.312285493234E+03
 -0.312285475975E+03 -0.312285451982E+03 -0.312285420985E+03 -0.312285382693E+03 -0.312285336789E+03
 -0.312285282929E+03 -0.312285220743E+03 -0.312285149831E+03 -0.312285069761E+03 -0.312284980069E+03
 -0.312284880254E+03 -0.312284769782E+03 -0.312284648074E+03 -0.312284514512E+03 -0.312284368433E+03
 -0.312284209126E+03 -0.312284035829E+03 -0.312283847726E+03 -0.312283643945E+03 -0.312283423551E+03
 -0.312283185546E+03 -0.312282928861E+03 -0.312282652356E+03 -0.312282354810E+03 -0.312282034919E+03
 -0.312281691292E+03 -0.312281322441E+03 -0.312280926778E+03 -0.312280502609E+03 -0.312280048123E+03
 -0.312279561390E+03 -0.312279040347E+03 -0.312278482795E+03 -0.312277886386E+03 -0.312277248615E+03
 -0.312276566811E+03 -0.312275838124E+03 -0.312275059511E+03 -0.312274227731E+03 -0.312273339323E+03
 -0.312272390597E+03 -0.312271377618E+03 -0.312270296191E+03 -0.312269141838E+03 -0.312267909787E+03
 -0.312266594948E+03 -0.312265191896E+03 -0.312263694841E+03 -0.312262097615E+03 -0.312260393637E+03
 -0.312258575892E+03 -0.312256636901E+03 -0.312254568689E+03 -0.312252362752E+03 -0.312250010026E+03
 -0.312247500846E+03 -0.312244824907E+03 -0.312241971224E+03 -0.312238928085E+03 -0.312235683006E+03
 -0.312232222673E+03 -0.312228532898E+03 -0.312224598552E+03 -0.312220403509E+03 -0.312215930576E+03
 -0.312211161426E+03 -0.312206076522E+03 -0.312200655039E+03 -0.312194874774E+03 -0.312188712063E+03
 -0.312182141678E+03 -0.312175136729E+03 -0.312167668552E+03 -0.312159706593E+03 -0.312151218285E+03
 -0.312142168913E+03 -0.312132521478E+03 -0.312122236540E+03 -0.312111272065E+03 -0.312099583251E+03
 -0.312087122346E+03 -0.312073838457E+03 -0.312059677345E+03 -0.312044581203E+03 -0.312028488425E+03
 -0.312011333358E+03 -0.311993046036E+03 -0.311973551902E+03 -0.311952771505E+03 -0.311930620185E+03
 -0.311907007732E+03 -0.311881838025E+03 -0.311855008653E+03 -0.311826410500E+03 -0.311795927319E+03
 -0.311763435266E+03 -0.311728802411E+03 -0.311691888218E+03 -0.311652542992E+03 -0.311610607288E+03
 -0.311565911293E+03 -0.311518274155E+03 -0.311467503287E+03 -0.311413393613E+03 -0.311355726783E+03
 -0.311294270328E+03 -0.311228776772E+03 -0.311158982687E+03 -0.311084607695E+03 -0.311005353408E+03
 -0.310920902311E+03 -0.310830916576E+03 -0.310735036813E+03 -0.310632880745E+03 -0.310524041813E+03
 -0.310408087707E+03 -0.310284558809E+03 -0.310152966566E+03 -0.310012791765E+03 -0.309863482729E+03
 -0.309704453418E+03 -0.309535081442E+03 -0.309354705975E+03 -0.309162625577E+03 -0.308958095916E+03
 -0.308740327401E+03 -0.308508482709E+03 -0.308261674225E+03 -0.307998961387E+03 -0.307719347944E+03
 -0.307421779130E+03 -0.307105138763E+03 -0.306768246279E+03 -0.306409853702E+03 -0.306028642587E+03
 -0.305623220918E+03 -0.305192120018E+03 -0.304733791468E+03 -0.304246604070E+03 -0.303728840897E+03
 -0.303178696452E+03 -0.302594273990E+03 -0.301973583055E+03 -0.301314537281E+03 -0.300614952529E+03
 -0.299872545436E+03 -0.299084932460E+03 -0.298249629507E+03 -0.297364052265E+03 -0.296425517342E+03
 -0.295431244356E+03 -0.294378359118E+03 -0.293263898062E+03 -0.292084814102E+03 -0.290837984106E+03
 -0.289520218194E+03 -0.288128271074E+03 -0.286658855661E+03 -0.285108659219E+03 -0.283474362298E+03
 -0.281752660733E+03 -0.279940290990E+03 -0.278034059143E+03 -0.276030873773E+03 -0.273927783073E+03
 -0.271722016436E+03 -0.269411030793E+03 -0.266992561939E+03 -0.264464681071E+03 -0.261825856722E+03
 -0.259075022243E+03 -0.256211648944E+03 -0.253235824944E+03 -0.250148339763E+03 -0.246950774586E+03
 -0.243645598086E+03 -0.240236267546E+03 -0.236727334806E+03 -0.233124556154E+03 -0.229435004419E+03
 -0.225667179940E+03 -0.221831113877E+03 -0.217938451362E+03 -0.214002490686E+03 -0.210038134423E+03
 -0.206061673244E+03 -0.202090267345E+03 -0.198140914578E+03 -0.194228626783E+03 -0.190363575397E+03
 -0.186547334157E+03 -0.182769341806E+03 -0.179006367124E+03 -0.175229147635E+03 -0.171419230451E+03
 -0.167592396406E+03 -0.163807274193E+03 -0.160098784450E+03 -0.156277832291E+03 -0.151850447360E+03
 -0.146642368664E+03 -0.142890227287E+03 -0.139282479537E+03 -0.135710837415E+03 -0.132159855006E+03
 -0.128639435453E+03 -0.125148125589E+03 -0.121681706973E+03 -0.118289174999E+03 -0.114969053266E+03
 -0.111722027070E+03 -0.108549141855E+03 -0.105451082841E+03 -0.102428197568E+03 -0.994805141629E+02
 -0.966077567372E+02 -0.938093547412E+02 -0.910844503295E+02 -0.884319055542E+02 -0.858503152591E+02
 -0.833380309403E+02 -0.808931996198E+02 -0.785138217982E+02 -0.761978215970E+02 -0.739431326552E+02
 -0.717477837788E+02 -0.696099790739E+02 -0.675281628697E+02 -0.655010625037E+02 -0.635277049869E+02
 -0.616074063756E+02 -0.597397349863E+02 -0.579244515014E+02 -0.561614305431E+02 -0.544505699149E+02
 -0.527916954681E+02 -0.511844711703E+02
 core charge-density (pseudized)
  0.844827909867E-08  0.900664612593E-08  0.960191696889E-08  0.102365306892E-07  0.109130875519E-07
  0.116343596798E-07  0.124033024119E-07  0.132230664127E-07  0.140970105816E-07  0.150287158158E-07
  0.160219996824E-07  0.170809320607E-07  0.182098518182E-07  0.194133845884E-07  0.206964617240E-07
  0.220643405025E-07  0.235226256676E-07  0.250772923938E-07  0.267347107692E-07  0.285016718963E-07
  0.303854157175E-07  0.323936606807E-07  0.345346353642E-07  0.368171121925E-07  0.392504433810E-07
  0.418445992548E-07  0.446102091020E-07  0.475586047253E-07  0.507018668734E-07  0.540528747405E-07
  0.576253587372E-07  0.614339567496E-07  0.654942741166E-07  0.698229475707E-07  0.744377134059E-07
  0.793574801495E-07  0.846024060384E-07  0.901939816151E-07  0.961551177827E-07  0.102510239680E-06
  0.109285386761E-06  0.116508319489E-06  0.124208633080E-06  0.132417878769E-06  0.141169693087E-06
  0.150499935679E-06  0.160446836241E-06  0.171051151157E-06  0.182356330497E-06  0.194408696046E-06
  0.207257631105E-06  0.220955782829E-06  0.235559277949E-06  0.251127952738E-06  0.267725598188E-06
  0.285420221383E-06  0.304284324151E-06  0.324395200132E-06  0.345835251477E-06  0.368692326484E-06
  0.393060079542E-06  0.419038354867E-06  0.446733595606E-06  0.476259279968E-06  0.507736386191E-06
  0.541293888228E-06  0.577069284206E-06  0.615209159800E-06  0.655869788849E-06  0.699217773669E-06
  0.745430727673E-06  0.794698003122E-06  0.847221466964E-06  0.903216327952E-06  0.962912018425E-06
  0.102655313437E-05  0.109440043762E-05  0.116673192427E-05  0.124384396370E-05  0.132605251294E-05
  0.141369441120E-05  0.150712876002E-05  0.160673839461E-05  0.171293145245E-05  0.182614304554E-05
  0.194683704314E-05  0.207550797242E-05  0.221268304463E-05  0.235892431524E-05  0.251483098678E-05
  0.268104186395E-05  0.285823797092E-05  0.304714534162E-05  0.324853799447E-05  0.346324110363E-05
  0.369213437991E-05  0.393615567507E-05  0.419630482431E-05  0.447364774272E-05  0.476932079242E-05
  0.508453543838E-05  0.542058321177E-05  0.577884100149E-05  0.616077669523E-05  0.656795519342E-05
  0.700204482057E-05  0.746482416022E-05  0.795818934166E-05  0.848416180807E-05  0.904489659806E-05
  0.964269117440E-05  0.102799948361E-04  0.109594187526E-04  0.116837466605E-04  0.124559462681E-04
  0.132791814119E-04  0.141568250182E-04  0.150924729193E-04  0.160899585840E-04  0.171533688203E-04
  0.182870605162E-04  0.194956784860E-04  0.207841744961E-04  0.221578275472E-04  0.236222654968E-04
  0.251834881097E-04  0.268478916311E-04  0.286222949833E-04  0.305139676922E-04  0.325306596583E-04
  0.346806328947E-04  0.369726953598E-04  0.394162370257E-04  0.420212683275E-04  0.447984611513E-04
  0.477591925297E-04  0.509155912208E-04  0.542805873629E-04  0.578679654077E-04  0.616924205462E-04
  0.657696188603E-04  0.701162614428E-04  0.747501527502E-04  0.796902734643E-04  0.849568581622E-04
  0.905714781092E-04  0.965571295129E-04  0.102938327599E-03  0.109741206888E-03  0.116993628088E-03
  0.124725292029E-03  0.132967861110E-03  0.141755088750E-03  0.151122957364E-03  0.161109825431E-03
  0.171756584251E-03  0.183106825012E-03  0.195207016870E-03  0.208106696736E-03  0.221858671551E-03
  0.236519233870E-03  0.252148391618E-03  0.268810112940E-03  0.286572587152E-03  0.305508502812E-03
  0.325695344064E-03  0.347215706413E-03  0.370157633219E-03  0.394614974244E-03  0.420687767696E-03
  0.448482647279E-03  0.478113275890E-03  0.509700807670E-03  0.543374380250E-03  0.579271639143E-03
  0.617539296344E-03  0.658333725350E-03  0.701821594927E-03  0.748180544116E-03  0.797599901106E-03
  0.850281448785E-03  0.906440239915E-03  0.966305465117E-03  0.103012137697E-02  0.109814827379E-02
  0.117066354684E-02  0.124796279490E-02  0.133036101054E-02  0.141819384231E-02  0.151181893783E-02
  0.161161737254E-02  0.171799516951E-02  0.183138491572E-02  0.195224748084E-02  0.208107384445E-02
  0.221838703846E-02  0.236474421126E-02  0.252073882108E-02  0.268700296578E-02  0.286420985725E-02
  0.305307644846E-02  0.325436622189E-02  0.346889214837E-02  0.369751982557E-02  0.394117080606E-02
  0.420082612484E-02  0.447753003694E-02  0.477239397575E-02  0.508660074307E-02  0.542140894233E-02
  0.577815766630E-02  0.615827145107E-02  0.656326550791E-02  0.699475124486E-02  0.745444208945E-02
  0.794415962414E-02  0.846584004523E-02  0.902154095576E-02  0.961344850212E-02  0.102438848628E-01
  0.109153160967E-01  0.116303603569E-01  0.123917964737E-01  0.132025729074E-01  0.140658170704E-01
  0.149848450132E-01  0.159631714644E-01  0.170045202110E-01  0.181128347992E-01  0.192922895289E-01
  0.205473007071E-01  0.218825381169E-01  0.233029366468E-01  0.248137080161E-01  0.264203525129E-01
  0.281286706511E-01  0.299447746294E-01  0.318750994583E-01  0.339264135934E-01  0.361058288916E-01
  0.384208096700E-01  0.408791806176E-01  0.434891332704E-01  0.462592307137E-01  0.491984101314E-01
  0.523159827644E-01  0.556216307803E-01  0.591254004906E-01  0.628376912766E-01  0.667692395023E-01
  0.709310966060E-01  0.753346004620E-01  0.799913389984E-01  0.849131049440E-01  0.901118404525E-01
  0.955995702247E-01  0.101388321609E+00  0.107490030022E+00  0.113916427883E+00  0.120678915104E+00
  0.127788409041E+00  0.135255171671E+00  0.143088611622E+00  0.151297058599E+00  0.159887507651E+00
  0.168865330707E+00  0.178233952801E+00  0.187994490529E+00  0.198145350430E+00  0.208681785295E+00
  0.219595406833E+00  0.230873653765E+00  0.242499215192E+00  0.254449410231E+00  0.266695526244E+00
  0.279202119783E+00  0.291926286489E+00  0.304816908879E+00  0.317813894100E+00  0.330847417541E+00
  0.343837192652E+00  0.356691792471E+00  0.369308054273E+00  0.381570605427E+00  0.393351555848E+00
  0.404510410467E+00  0.414894263490E+00  0.424338344841E+00  0.432666997483E+00  0.439695171907E+00
  0.445230530033E+00  0.449076254168E+00  0.451034656198E+00  0.450911676205E+00  0.448522346153E+00
  0.443697270929E+00  0.436290142896E+00  0.426186254298E+00  0.413311900892E+00  0.397644476711E+00
  0.379222940844E+00  0.358158190051E+00  0.334642694958E+00  0.308958553676E+00  0.281482889651E+00
  0.252689279757E+00  0.223143660286E+00  0.193492947209E+00  0.164444458226E+00  0.136734185957E+00
  0.111082106396E+00  0.881330917300E-01  0.683827221296E-01  0.520884565867E-01  0.391684117960E-01
  0.291566958415E-01  0.214836865307E-01  0.156649309549E-01  0.112998267295E-01  0.806132483266E-02
  0.568582195405E-02  0.396356671653E-02  0.272980726404E-02  0.185682236187E-02  0.124690611594E-02
  0.826318389796E-03  0.540168647572E-03  0.348169300091E-03  0.221174204024E-03  0.138407016332E-03
  0.852807851872E-04  0.517126373690E-04  0.308440028617E-04  0.180860027800E-04  0.104201627613E-04
  0.589551055331E-05  0.327363792734E-05  0.178295877665E-05  0.951883420080E-06  0.497827569493E-06
  0.254881077989E-06  0.127661388386E-06  0.625076401169E-07  0.298974582423E-07  0.139581037531E-07
  0.635564899954E-08  0.282014773921E-08
 pseudo wavefunction
  0.542682914097E-12  0.597363136373E-12  0.657552886632E-12  0.723807299749E-12  0.796737445472E-12
  0.877015964360E-12  0.965383271606E-12  0.106265438594E-11  0.116972644663E-11  0.128758698782E-11
  0.141732304671E-11  0.156013118932E-11  0.171732854654E-11  0.189036496214E-11  0.208083636478E-11
  0.229049948741E-11  0.252128806971E-11  0.277533069317E-11  0.305497041315E-11  0.336278636906E-11
  0.370161757198E-11  0.407458908906E-11  0.448514086626E-11  0.493705945530E-11  0.543451293723E-11
  0.598208936505E-11  0.658483907965E-11  0.724832128948E-11  0.797865534360E-11  0.878257717089E-11
  0.966750140607E-11  0.106415897754E-10  0.117138263730E-10  0.128941005218E-10  0.141932979835E-10
  0.156234013587E-10  0.171976006037E-10  0.189304146822E-10  0.208378254746E-10  0.229374251805E-10
  0.252485785730E-10  0.277926016009E-10  0.305929579876E-10  0.336754756390E-10  0.370685848559E-10
  0.408035805489E-10  0.449149108736E-10  0.494404949487E-10  0.544220725866E-10  0.599055892625E-10
  0.659416198735E-10  0.725858351939E-10  0.798995153310E-10  0.879501149156E-10  0.968118852413E-10
  0.106566559089E-09  0.117304104553E-09  0.129123554825E-09  0.142133921583E-09  0.156455200410E-09
  0.172219477528E-09  0.189572148031E-09  0.208673256876E-09  0.229698974989E-09  0.252843224096E-09
  0.278319465280E-09  0.306362667740E-09  0.337231475929E-09  0.371210595044E-09  0.408613416879E-09
  0.449784910251E-09  0.495104802669E-09  0.544991082573E-09  0.599903854468E-09  0.660349582482E-09
  0.726885761509E-09  0.800126059003E-09  0.880745974861E-09  0.969489071572E-09  0.106717383213E-08
  0.117470120890E-08  0.129306293315E-08  0.142335066180E-08  0.156676604578E-08  0.172463181288E-08
  0.189840396728E-08  0.208968521825E-08  0.230023976200E-08  0.253200955275E-08  0.278713221345E-08
  0.306796075094E-08  0.337708525773E-08  0.371735680029E-08  0.409191371437E-08  0.450421054964E-08
  0.495804993086E-08  0.545761762921E-08  0.600752116730E-08  0.661283231400E-08  0.727913386083E-08
  0.801257111139E-08  0.881990855881E-08  0.970859227368E-08  0.106868185780E-07  0.117636096387E-07
  0.129488966770E-07  0.142536115626E-07  0.156897876354E-07  0.172706706866E-07  0.190108411207E-07
  0.209263484268E-07  0.230348591981E-07  0.253558200647E-07  0.279106370432E-07  0.307228729559E-07
  0.338184647410E-07  0.372259626569E-07  0.409767935875E-07  0.451055508760E-07  0.496503133594E-07
  0.546529965466E-07  0.601597391778E-07  0.662213287295E-07  0.728936697893E-07  0.802382996186E-07
  0.883229556571E-07  0.972222002025E-07  0.107018108024E-06  0.117801023251E-06  0.129670392510E-06
  0.142735682006E-06  0.157117386979E-06  0.172948142863E-06  0.190373948390E-06  0.209555511892E-06
  0.230669733246E-06  0.253911335092E-06  0.279494658379E-06  0.307655638782E-06  0.338653982207E-06
  0.372775559436E-06  0.410335041980E-06  0.451678803440E-06  0.497188113090E-06  0.547282651142E-06
  0.602424378053E-06  0.663121793550E-06  0.729934624585E-06  0.803478985437E-06  0.884433057460E-06
  0.973543340826E-06  0.107163153581E-05  0.117960211703E-05  0.129845067032E-05  0.142927306904E-05
  0.157327557439E-05  0.173178595243E-05  0.190626571052E-05  0.209832356538E-05  0.230973026700E-05
  0.254243491465E-05  0.279858291505E-05  0.308053574791E-05  0.339089272057E-05  0.373251491168E-05
  0.410855152409E-05  0.452246888896E-05  0.497808238774E-05  0.547959158498E-05  0.603161889469E-05
  0.663925213515E-05  0.730809136259E-05  0.804430041344E-05  0.885466362767E-05  0.974664827319E-05
  0.107284732433E-04  0.118091846564E-04  0.129987390495E-04  0.143080949277E-04  0.157493135057E-04
  0.173356695627E-04  0.190817734234E-04  0.210037051777E-04  0.231191623639E-04  0.254476224618E-04
  0.280105216752E-04  0.308314516305E-04  0.339363757803E-04  0.373538674770E-04  0.411153718773E-04
  0.452554940508E-04  0.498123159013E-04  0.548277447664E-04  0.603478968430E-04  0.664235188964E-04
  0.731104520495E-04  0.804701418207E-04  0.885701989881E-04  0.974850163015E-04  0.107296446557E-03
  0.118094548081E-03  0.129978404257E-03  0.143057024373E-03  0.157450333766E-03  0.173290262001E-03
  0.190721938678E-03  0.209905007340E-03  0.231015068996E-03  0.254245267819E-03  0.279808032787E-03
  0.307936990330E-03  0.338889064418E-03  0.372946782088E-03  0.410420804035E-03  0.451652701707E-03
  0.497018004276E-03  0.546929540968E-03  0.601841106516E-03  0.662251479939E-03  0.728708829506E-03
  0.801815539584E-03  0.882233498112E-03  0.970689886692E-03  0.106798351882E-02  0.117499177540E-02
  0.129267819073E-02  0.142210074618E-02  0.156442093325E-02  0.172091365223E-02  0.189297801754E-02
  0.208214914553E-02  0.229011100587E-02  0.251871042271E-02  0.276997231674E-02  0.304611628476E-02
  0.334957461796E-02  0.368301186508E-02  0.404934605065E-02  0.445177166223E-02  0.489378452347E-02
  0.537920867115E-02  0.591222535523E-02  0.649740427875E-02  0.713973719110E-02  0.784467394132E-02
  0.861816108814E-02  0.946668314931E-02  0.103973065534E-01  0.114177263317E-01  0.125363155570E-01
  0.137621774911E-01  0.151052003576E-01  0.165761145881E-01  0.181865523175E-01  0.199491088080E-01
  0.218774053750E-01  0.239861532512E-01  0.262912176725E-01  0.288096812841E-01  0.315599057516E-01
  0.345615902115E-01  0.378358249093E-01  0.414051380426E-01  0.452935334499E-01  0.495265163599E-01
  0.541311039378E-01  0.591358168276E-01  0.645706473027E-01  0.704669989844E-01  0.768575923956E-01
  0.837763298612E-01  0.912581124932E-01  0.993386011853E-01  0.108053912747E+00  0.117440241528E+00
  0.127533396197E+00  0.138368240752E+00  0.149978028476E+00  0.162393617444E+00  0.175642556480E+00
  0.189748031257E+00  0.204727661706E+00  0.220592144193E+00  0.237343735315E+00  0.254974578758E+00
  0.273464882884E+00  0.292780964670E+00  0.312873185661E+00  0.333673818011E+00  0.355094893573E+00
  0.377026106608E+00  0.399332860911E+00  0.421854574923E+00  0.444403383075E+00  0.466763397542E+00
  0.488690720222E+00  0.509914418325E+00  0.530138695518E+00  0.549046500662E+00  0.566304812984E+00
  0.581571820330E+00  0.594506159121E+00  0.604778302985E+00  0.612084063525E+00  0.616159993228E+00
  0.616800250193E+00  0.613874193356E+00  0.607343626224E+00  0.597278206073E+00  0.583867104873E+00
  0.567424584314E+00  0.548386786861E+00  0.527296828013E+00  0.504775308560E+00  0.481473781628E+00
  0.458009659235E+00  0.434882684193E+00  0.412375773203E+00  0.390533347353E+00  0.369357192968E+00
  0.348851913512E+00  0.329020507868E+00  0.309864598741E+00  0.291384629578E+00  0.273580030098E+00
  0.256449347834E+00  0.239990345606E+00  0.224200062778E+00  0.209074839755E+00  0.194610305406E+00
  0.180801329022E+00  0.167641929624E+00  0.155125219539E+00  0.143243218140E+00  0.131986782883E+00
  0.121345495887E+00  0.111307590440E+00  0.101859917167E+00  0.929879573049E-01  0.846758856748E-01
  0.769066808370E-01  0.696622752204E-01  0.629237342921E-01  0.566714514077E-01  0.508853440676E-01
  0.455450379593E-01  0.406300273620E-01
 ae wavefunction
  0.588470849071E-09  0.643846036759E-09  0.703932154381E-09  0.769171043224E-09  0.840042950550E-09
  0.917070148749E-09  0.100082087643E-08  0.109191363425E-08  0.119102186709E-08  0.129887907132E-08
  0.141628436628E-08  0.154410857318E-08  0.168330085208E-08  0.183489594675E-08  0.200002209776E-08
  0.217990968310E-08  0.237590066027E-08  0.258945888138E-08  0.282218136502E-08  0.307581061680E-08
  0.335224809639E-08  0.365356893978E-08  0.398203805686E-08  0.434012773323E-08  0.473053687996E-08
  0.515621208901E-08  0.562037066239E-08  0.612652580701E-08  0.667851420211E-08  0.728052615309E-08
  0.793713860477E-08  0.865335125423E-08  0.943462608914E-08  0.102869306569E-07  0.112167854387E-07
  0.122313157085E-07  0.133383083161E-07  0.145462738653E-07  0.158645148008E-07  0.173031999787E-07
  0.188734463395E-07  0.205874083716E-07  0.224583761129E-07  0.245008825168E-07  0.267308210858E-07
  0.291655747633E-07  0.318241571753E-07  0.347273674129E-07  0.378979596694E-07  0.413608291694E-07
  0.451432159690E-07  0.492749283606E-07  0.537885877843E-07  0.587198973330E-07  0.641079361434E-07
  0.699954821875E-07  0.764293662258E-07  0.834608599515E-07  0.911461016531E-07  0.995465630436E-07
  0.108729561268E-06  0.118768820483E-06  0.129745087840E-06  0.141746809173E-06  0.154870870194E-06
  0.169223409617E-06  0.184920711159E-06  0.202090182185E-06  0.220871427352E-06  0.241417426622E-06
  0.263895827699E-06  0.288490364144E-06  0.315402411375E-06  0.344852693989E-06  0.377083159174E-06
  0.412359032385E-06  0.450971073055E-06  0.493238049821E-06  0.539509456638E-06  0.590168493279E-06
  0.645635335874E-06  0.706370725868E-06  0.772879908160E-06  0.845716952615E-06  0.925489496010E-06
  0.101286394544E-05  0.110857118787E-05  0.121341285504E-05  0.132826819760E-05  0.145410162746E-05
  0.159197099329E-05  0.174303665993E-05  0.190857146973E-05  0.208997167087E-05  0.228876890637E-05
  0.250664336588E-05  0.274543821268E-05  0.300717540858E-05  0.329407307147E-05  0.360856451275E-05
  0.395331911623E-05  0.433126523509E-05  0.474561530042E-05  0.519989335311E-05  0.569796523060E-05
  0.624407166263E-05  0.684286455261E-05  0.749944674838E-05  0.821941563462E-05  0.900891090871E-05
  0.987466693758E-05  0.108240701284E-04  0.118652217871E-04  0.130070069818E-04  0.142591699766E-04
  0.156323968530E-04  0.171384059912E-04  0.187900471491E-04  0.206014099383E-04  0.225879425742E-04
  0.247665818529E-04  0.271558953962E-04  0.297762372969E-04  0.326499184004E-04  0.358013925666E-04
  0.392574603758E-04  0.430474918734E-04  0.472036700839E-04  0.517612571815E-04  0.567588853636E-04
  0.622388746539E-04  0.682475800519E-04  0.748357706520E-04  0.820590435788E-04  0.899782758251E-04
  0.986601173389E-04  0.108177528981E-03  0.118610369279E-03  0.130046034220E-03  0.142580154674E-03
  0.156317356402E-03  0.171372088016E-03  0.187869522649E-03  0.205946539591E-03  0.225752792580E-03
  0.247451871992E-03  0.271222568687E-03  0.297260247885E-03  0.325778342013E-03  0.357009972154E-03
  0.391209708410E-03  0.428655480187E-03  0.469650648195E-03  0.514526250757E-03  0.563643437831E-03
  0.617396107034E-03  0.676213756859E-03  0.740564573198E-03  0.810958766263E-03  0.887952175978E-03
  0.972150164904E-03  0.106421181883E-02  0.116485447612E-02  0.127485860806E-02  0.139507307328E-02
  0.152642077054E-02  0.166990471500E-02  0.182661456398E-02  0.199773361924E-02  0.218454633344E-02
  0.238844634893E-02  0.261094509807E-02  0.285368099389E-02  0.311842924077E-02  0.340711229425E-02
  0.372181099887E-02  0.406477643253E-02  0.443844248431E-02  0.484543919181E-02  0.528860686176E-02
  0.577101099542E-02  0.629595803704E-02  0.686701196027E-02  0.748801170252E-02  0.816308945240E-02
  0.889668978881E-02  0.969358966337E-02  0.105589192095E-01  0.114981833517E-01  0.125172841789E-01
  0.136225440317E-01  0.148207292420E-01  0.161190744477E-01  0.175253073869E-01  0.190476740599E-01
  0.206949641274E-01  0.224765363881E-01  0.244023441612E-01  0.264829603687E-01  0.287296020915E-01
  0.311541543419E-01  0.337691927691E-01  0.365880049860E-01  0.396246101725E-01  0.428937765817E-01
  0.464110365375E-01  0.501926984703E-01  0.542558554817E-01  0.586183898583E-01  0.632989728544E-01
  0.683170589434E-01  0.736928735923E-01  0.794473934650E-01  0.856023178531E-01  0.921800300869E-01
  0.992035477608E-01  0.106696460804E+00  0.114682856737E+00  0.123187232798E+00  0.132234394956E+00
  0.141849344045E+00  0.152057149281E+00  0.162882809250E+00  0.174351100067E+00  0.186486409930E+00
  0.199312559029E+00  0.212852603754E+00  0.227128624468E+00  0.242161496565E+00  0.257970644928E+00
  0.274573782218E+00  0.291986631642E+00  0.310222635006E+00  0.329292647132E+00  0.349204618064E+00
  0.369963264886E+00  0.391569735493E+00  0.414021267247E+00  0.437310844004E+00  0.461426855669E+00
  0.486352765061E+00  0.512066787474E+00  0.538541588902E+00  0.565744009348E+00  0.593634817983E+00
  0.622168507066E+00  0.651293131572E+00  0.680950201280E+00  0.711074632123E+00  0.741594763804E+00
  0.772432451722E+00  0.803503243409E+00  0.834716652888E+00  0.865976549768E+00  0.897181680214E+00
  0.928226327759E+00  0.959001093661E+00  0.989393720081E+00  0.101928979816E+01  0.104857313277E+01
  0.107712554767E+01  0.110482609685E+01  0.113155001625E+01  0.115716817137E+01  0.118154788387E+01
  0.120455549670E+01  0.122606002827E+01  0.124593667318E+01  0.126406930759E+01  0.128035199368E+01
  0.129468992842E+01  0.130700023537E+01  0.131721277459E+01  0.132527096849E+01  0.133113255656E+01
  0.133477017783E+01  0.133617170364E+01  0.133534028157E+01  0.133229408625E+01  0.132706579807E+01
  0.131970184374E+01  0.131026144047E+01  0.129881548563E+01  0.128544533287E+01  0.127024149382E+01
  0.125330230054E+01  0.123473256056E+01  0.121464223269E+01  0.119314514582E+01  0.117035778058E+01
  0.114639812681E+01  0.112138462628E+01  0.109543520718E+01  0.106866641050E+01  0.104119261045E+01
  0.101312532318E+01  0.984572605161E+00  0.955638531035E+00  0.926422755638E+00  0.897020150423E+00
  0.867520515724E+00  0.838008364868E+00  0.808562777356E+00  0.779257317176E+00  0.750160011140E+00
  0.721333380654E+00  0.692834520306E+00  0.664715215681E+00  0.637022094639E+00  0.609796806861E+00
  0.583076229400E+00  0.556892695791E+00  0.531274249429E+00  0.506244918941E+00  0.481825014107E+00
  0.458031437559E+00  0.434878005871E+00  0.412375773203E+00  0.390533347353E+00  0.369357192968E+00
  0.348851913512E+00  0.329020507868E+00  0.309864598741E+00  0.291384629578E+00  0.273580030098E+00
  0.256449347834E+00  0.239990345606E+00  0.224200062778E+00  0.209074839755E+00  0.194610305406E+00
  0.180801329022E+00  0.167641929624E+00  0.155125219539E+00  0.143243218140E+00  0.131986782883E+00
  0.121345495887E+00  0.111307590440E+00  0.101859917167E+00  0.929879573049E-01  0.846758856748E-01
  0.769066808370E-01  0.696622752204E-01  0.629237342921E-01  0.566714514077E-01  0.508853440676E-01
  0.455450379593E-01  0.406300273620E-01
 pseudo wavefunction
 -0.129831551176E-12 -0.142913256667E-12 -0.157313062544E-12 -0.173163779367E-12 -0.190611599561E-12
 -0.209817445763E-12 -0.230958455025E-12 -0.254229612559E-12 -0.279845550108E-12 -0.308042525504E-12
 -0.339080601697E-12 -0.373246045336E-12 -0.410853967025E-12 -0.452251227620E-12 -0.497819637346E-12
 -0.547979477270E-12 -0.603193375581E-12 -0.663970574448E-12 -0.730871626801E-12 -0.804513566352E-12
 -0.885575598548E-12 -0.974805364936E-12 -0.107302583872E-11 -0.118114291509E-11 -0.130015376639E-11
 -0.143115603912E-11 -0.157535797756E-11 -0.173408956756E-11 -0.190881480309E-11 -0.210114518873E-11
 -0.231285460274E-11 -0.254589565767E-11 -0.280241770944E-11 -0.308478668100E-11 -0.339560688344E-11
 -0.373774503576E-11 -0.411435670476E-11 -0.452891540917E-11 -0.498524465608E-11 -0.548755320546E-11
 -0.604047388787E-11 -0.664910633339E-11 -0.731906400585E-11 -0.805652597622E-11 -0.886829391263E-11
 -0.976185481261E-11 -0.107454500562E-10 -0.118281514168E-10 -0.130199447306E-10 -0.143318219969E-10
 -0.157758827577E-10 -0.173654456928E-10 -0.191151714589E-10 -0.210411979056E-10 -0.231612889156E-10
 -0.254949982426E-10 -0.280638498564E-10 -0.308915364597E-10 -0.340041380072E-10 -0.374303622429E-10
 -0.412018094726E-10 -0.453532640155E-10 -0.499230150216E-10 -0.549532096145E-10 -0.604902416162E-10
 -0.665851794391E-10 -0.732942370925E-10 -0.806792926464E-10 -0.888084589351E-10 -0.977567117643E-10
 -0.107606581415E-09 -0.118448913823E-09 -0.130383708452E-09 -0.143521040592E-09 -0.157982076585E-09
 -0.173900191342E-09 -0.191422198464E-09 -0.210709704299E-09 -0.231940598443E-09 -0.255310694411E-09
 -0.281035535620E-09 -0.309352383345E-09 -0.340522404973E-09 -0.374833082739E-09 -0.412600865162E-09
 -0.454174085638E-09 -0.499936175092E-09 -0.550309198342E-09 -0.605757746763E-09 -0.666793223181E-09
 -0.733978558480E-09 -0.807933403460E-09 -0.889339843794E-09 -0.978948690812E-09 -0.107758640612E-08
 -0.118616272392E-08 -0.130567904132E-08 -0.143723765401E-08 -0.158205192250E-08 -0.174145746267E-08
 -0.191692446377E-08 -0.211007124759E-08 -0.232267919375E-08 -0.255670916875E-08 -0.281431961032E-08
 -0.309788643392E-08 -0.341002494474E-08 -0.375361395751E-08 -0.413182234640E-08 -0.454813826987E-08
 -0.500640134000E-08 -0.551083803289E-08 -0.606610066667E-08 -0.667731030658E-08 -0.735010399271E-08
 -0.809068672581E-08 -0.890588869069E-08 -0.980322824459E-08 -0.107909812516E-07 -0.118782574019E-07
 -0.130750842202E-07 -0.143924995375E-07 -0.158426532778E-07 -0.174389195008E-07 -0.191960197299E-07
 -0.211301587057E-07 -0.232591738141E-07 -0.256026995683E-07 -0.281823486586E-07 -0.310219112417E-07
 -0.341475743033E-07 -0.375881631186E-07 -0.413754070331E-07 -0.455442320168E-07 -0.501330826833E-07
 -0.551842767455E-07 -0.607443951703E-07 -0.668647116297E-07 -0.736016652032E-07 -0.810173806866E-07
 -0.891802413004E-07 -0.981655190728E-07 -0.108056068703E-06 -0.118943091293E-06 -0.130926974987E-06
 -0.144118220246E-06 -0.158638458292E-06 -0.174621572081E-06 -0.192214930133E-06 -0.211580744571E-06
 -0.232897565857E-06 -0.256361927989E-06 -0.282190159287E-06 -0.310620375408E-06 -0.341914672947E-06
 -0.376361543749E-06 -0.414278532159E-06 -0.456015159605E-06 -0.501956143388E-06 -0.552524939242E-06
 -0.608187640189E-06 -0.669457267476E-06 -0.736898492973E-06 -0.811132836338E-06 -0.892844384619E-06
 -0.982786086708E-06 -0.108178668033E-05 -0.119075831498E-05 -0.131070494064E-05 -0.144273153896E-05
 -0.158805428136E-05 -0.174801170689E-05 -0.192407702193E-05 -0.211787163398E-05 -0.233118004306E-05
 -0.256596622632E-05 -0.282439166523E-05 -0.310883517930E-05 -0.342191474664E-05 -0.376651150961E-05
 -0.414579618339E-05 -0.456325810666E-05 -0.502273719765E-05 -0.552845910421E-05 -0.608507386551E-05
 -0.669769843386E-05 -0.737196343940E-05 -0.811406461818E-05 -0.893081936480E-05 -0.982972891630E-05
 -0.108190467229E-04 -0.119078536157E-04 -0.131061404390E-04 -0.144248988834E-04 -0.158762213198E-04
 -0.174734105199E-04 -0.192311002253E-04 -0.211653876258E-04 -0.232939789027E-04 -0.256363491071E-04
 -0.282139177576E-04 -0.310502416773E-04 -0.341712267253E-04 -0.376053602360E-04 -0.413839661444E-04
 -0.455414849547E-04 -0.501157809089E-04 -0.551484789187E-04 -0.606853340580E-04 -0.667766366541E-04
 -0.734776562857E-04 -0.808491282766E-04 -0.889577865816E-04 -0.978769472868E-04 -0.107687147293E-03
 -0.118476843121E-03 -0.130343175170E-03 -0.143392803171E-03 -0.157742819006E-03 -0.173521743531E-03
 -0.190870614476E-03 -0.209944173023E-03 -0.230912157102E-03 -0.253960709981E-03 -0.279293913183E-03
 -0.307135453258E-03 -0.337730432382E-03 -0.371347333149E-03 -0.408280148303E-03 -0.448850686388E-03
 -0.493411064492E-03 -0.542346399248E-03 -0.596077707125E-03 -0.655065024613E-03 -0.719810758281E-03
 -0.790863273601E-03 -0.868820730006E-03 -0.954335167634E-03 -0.104811684857E-02 -0.115093885195E-02
 -0.126364191801E-02 -0.138713953055E-02 -0.152242322054E-02 -0.167056806527E-02 -0.183273834683E-02
 -0.201019332169E-02 -0.220429303740E-02 -0.241650411477E-02 -0.264840539171E-02 -0.290169329910E-02
 -0.317818680799E-02 -0.347983175116E-02 -0.380870427881E-02 -0.416701315752E-02 -0.455710056261E-02
 -0.498144094469E-02 -0.544263747103E-02 -0.594341544904E-02 -0.648661203187E-02 -0.707516138238E-02
 -0.771207432974E-02 -0.840041139169E-02 -0.914324785111E-02 -0.994362936819E-02 -0.108045163756E-01
 -0.117287152428E-01 -0.127187939047E-01 -0.137769793313E-01 -0.149050338629E-01 -0.161041070587E-01
 -0.173745593013E-01 -0.187157529721E-01 -0.201258065736E-01 -0.216013067290E-01 -0.231369725538E-01
 -0.247252664928E-01 -0.263559453660E-01 -0.280155451114E-01 -0.296867925895E-01 -0.313479378780E-01
 -0.329720008091E-01 -0.345259261570E-01 -0.359696429793E-01 -0.372550252657E-01 -0.383247533831E-01
 -0.391110789937E-01 -0.395345003282E-01 -0.395023601163E-01 -0.389073853151E-01 -0.376261962349E-01
 -0.355178229385E-01 -0.324222790458E-01 -0.281592574196E-01 -0.225270286492E-01 -0.153016416539E-01
 -0.623654576275E-02  0.493722532078E-02  0.185101461957E-01  0.347923879716E-01  0.541109047702E-01
  0.768052114211E-01  0.103221645261E+00  0.133705919336E+00  0.168593808533E+00  0.208199870589E+00
  0.252804197571E+00  0.302637327620E+00  0.357863628430E+00  0.418563698488E+00  0.484716621992E+00
  0.556183255887E+00  0.632692112114E+00  0.713829803547E+00  0.799038411949E+00  0.887622456209E+00
  0.978768312938E+00  0.107157887020E+01  0.116512668486E+01  0.125862048177E+01  0.135146391122E+01
  0.144299794253E+01  0.153246521162E+01  0.161900366900E+01  0.000000000000E+00  0.000000000000E+00
  0.000000000000E+00  0.000000000000E+00  0.000000000000E+00  0.000000000000E+00  0.000000000000E+00
  0.000000000000E+00  0.000000000000E+00  0.000000000000E+00  0.000000000000E+00  0.000000000000E+00
  0.000000000000E+00  0.000000000000E+00  0.000000000000E+00  0.000000000000E+00  0.000000000000E+00
  0.000000000000E+00  0.000000000000E+00  0.000000000000E+00  0.000000000000E+00  0.000000000000E+00
  0.000000000000E+00  0.000000000000E+00
 ae wavefunction
 -0.510508770185E-09 -0.558547763589E-09 -0.610673573143E-09 -0.667269504414E-09 -0.728752180868E-09
 -0.795574683542E-09 -0.868229970028E-09 -0.947254601177E-09 -0.103323280299E-08 -0.112680089725E-08
 -0.122865213491E-08 -0.133954196965E-08 -0.146029381555E-08 -0.159180533222E-08 -0.173505528949E-08
 -0.189111106334E-08 -0.206113682712E-08 -0.224640250006E-08 -0.244829352585E-08 -0.266832156097E-08
 -0.290813615757E-08 -0.316953753537E-08 -0.345449054659E-08 -0.376513994587E-08 -0.410382708982E-08
 -0.447310820300E-08 -0.487577435622E-08 -0.531487332350E-08 -0.579373349740E-08 -0.631599004807E-08
 -0.688561356289E-08 -0.750694137511E-08 -0.818471186407E-08 -0.892410199215E-08 -0.973076840259E-08
 -0.106108924082E-07 -0.115712292521E-07 -0.126191620480E-07 -0.137627608475E-07 -0.150108473310E-07
 -0.163730656611E-07 -0.178599600936E-07 -0.194830599964E-07 -0.212549729911E-07 -0.231894870026E-07
 -0.253016820760E-07 -0.276080529057E-07 -0.301266431132E-07 -0.328771924100E-07 -0.358812978953E-07
 -0.391625908571E-07 -0.427469305793E-07 -0.466626168089E-07 -0.509406226881E-07 -0.556148501455E-07
 -0.607224099240E-07 -0.663039286423E-07 -0.724038855179E-07 -0.790709816383E-07 -0.863585449445E-07
 -0.943249744081E-07 -0.103034227214E-06 -0.112556353135E-06 -0.122968080710E-06 -0.134353460241E-06
 -0.146804569196E-06 -0.160422286041E-06 -0.175317139231E-06 -0.191610238619E-06 -0.209434297404E-06
 -0.228934753349E-06 -0.250270999023E-06 -0.273617731663E-06 -0.299166434309E-06 -0.327127001024E-06
 -0.357729520238E-06 -0.391226231619E-06 -0.427893673381E-06 -0.468035038568E-06 -0.511982760692E-06
 -0.560101350994E-06 -0.612790511928E-06 -0.670488553583E-06 -0.733676142667E-06 -0.802880416237E-06
 -0.878679495765E-06 -0.961707440253E-06 -0.105265968119E-05 -0.115229898597E-05 -0.126146200102E-05
 -0.138106643096E-05 -0.151211891512E-05 -0.165572366924E-05 -0.181309196592E-05 -0.198555253533E-05
 -0.217456297459E-05 -0.238172226345E-05 -0.260878449268E-05 -0.285767392198E-05 -0.313050149527E-05
 -0.342958295350E-05 -0.375745869807E-05 -0.411691557288E-05 -0.451101074871E-05 -0.494309791052E-05
 -0.541685596864E-05 -0.593632053321E-05 -0.650591841592E-05 -0.713050544689E-05 -0.781540792088E-05
 -0.856646801739E-05 -0.939009357035E-05 -0.102933125986E-04 -0.112838330454E-04 -0.123701082182E-04
 -0.135614084627E-04 -0.148678996571E-04 -0.163007291626E-04 -0.178721199277E-04 -0.195954735039E-04
 -0.214854828014E-04 -0.235582554866E-04 -0.258314490050E-04 -0.283244182997E-04 -0.310583773938E-04
 -0.340565761041E-04 -0.373444932715E-04 -0.409500480072E-04 -0.449038305937E-04 -0.492393548147E-04
 -0.539933336446E-04 -0.592059803962E-04 -0.649213375997E-04 -0.711876360834E-04 -0.780576869334E-04
 -0.855893092332E-04 -0.938457967278E-04 -0.102896426813E-03 -0.112817015535E-03 -0.123690522573E-03
 -0.135607710523E-03 -0.148667863102E-03 -0.162979567308E-03 -0.178661564932E-03 -0.195843679229E-03
 -0.214667823044E-03 -0.235289095102E-03 -0.257876971732E-03 -0.282616601784E-03 -0.309710213078E-03
 -0.339378639334E-03 -0.371862977130E-03 -0.407426383107E-03 -0.446356022346E-03 -0.488965179524E-03
 -0.535595545263E-03 -0.586619690802E-03 -0.642443745001E-03 -0.703510288453E-03 -0.770301480388E-03
 -0.843342434886E-03 -0.923204863828E-03 -0.101051100489E-02 -0.110593785378E-02 -0.121022172079E-02
 -0.132416313267E-02 -0.144863210145E-02 -0.158457378298E-02 -0.173301454828E-02 -0.189506849183E-02
 -0.207194440112E-02 -0.226495321256E-02 -0.247551597883E-02 -0.270517237317E-02 -0.295558975573E-02
 -0.322857282697E-02 -0.352607389259E-02 -0.385020376308E-02 -0.420324331045E-02 -0.458765570225E-02
 -0.500609933129E-02 -0.546144145674E-02 -0.595677256875E-02 -0.649542148512E-02 -0.708097118368E-02
 -0.771727536872E-02 -0.840847576340E-02 -0.915902011282E-02 -0.997368087414E-02 -0.108575745607E-01
 -0.118161816967E-01 -0.128553673258E-01 -0.139814020071E-01 -0.152009832120E-01 -0.165212570245E-01
 -0.179498400275E-01 -0.194948412369E-01 -0.211648839293E-01 -0.229691271822E-01 -0.249172869267E-01
 -0.270196562848E-01 -0.292871249428E-01 -0.317311972820E-01 -0.343640089650E-01 -0.371983416444E-01
 -0.402476354312E-01 -0.435259987209E-01 -0.470482149267E-01 -0.508297456058E-01 -0.548867293789E-01
 -0.592359759361E-01 -0.638949542933E-01 -0.688817743388E-01 -0.742151606064E-01 -0.799144171807E-01
 -0.859993826991E-01 -0.924903745922E-01 -0.994081219630E-01 -0.106773686811E+00 -0.114608373585E+00
 -0.122933627230E+00 -0.131770919939E+00 -0.141141626638E+00 -0.151066888907E+00 -0.161567466626E+00
 -0.172663576407E+00 -0.184374715840E+00 -0.196719472888E+00 -0.209715320113E+00 -0.223378393816E+00
 -0.237723258380E+00 -0.252762656353E+00 -0.268507244887E+00 -0.284965319452E+00 -0.302142525962E+00
 -0.320041562882E+00 -0.338661875271E+00 -0.357999343259E+00 -0.378045967940E+00 -0.398789558234E+00
 -0.420213422834E+00 -0.442296071863E+00 -0.465010933392E+00 -0.488326090356E+00 -0.512204043717E+00
 -0.536601507844E+00 -0.561469244126E+00 -0.586751938671E+00 -0.612388129984E+00 -0.638310192688E+00
 -0.664444384267E+00 -0.690710963621E+00 -0.717024392981E+00 -0.743293637599E+00 -0.769422577790E+00
 -0.795310539971E+00 -0.820852928954E+00 -0.845941895420E+00 -0.870466903617E+00 -0.894315004794E+00
 -0.917370634230E+00 -0.939514906592E+00 -0.960624699060E+00 -0.980572167688E+00 -0.999225444580E+00
 -0.101645081099E+01 -0.103211578325E+01 -0.104609205249E+01 -0.105825756792E+01 -0.106849776540E+01
 -0.107670632115E+01 -0.108278576698E+01 -0.108664811218E+01 -0.108821546703E+01 -0.108742059269E+01
 -0.108420729173E+01 -0.107853057498E+01 -0.107035657372E+01 -0.105966219594E+01 -0.104643454728E+01
 -0.103067014792E+01 -0.101237398372E+01 -0.991558429757E+00 -0.968242084345E+00 -0.942448549657E+00
 -0.914205192441E+00 -0.883541915543E+00 -0.850489968197E+00 -0.815080818519E+00 -0.777345110146E+00
 -0.737311719773E+00 -0.695006930629E+00 -0.650453735063E+00 -0.603671276240E+00 -0.554674441221E+00
 -0.503473614338E+00 -0.450074605561E+00 -0.394478764055E+00 -0.336683297182E+00 -0.276681809365E+00
 -0.214465082950E+00 -0.150022121936E+00 -0.833414814751E-01 -0.144129068414E-01  0.567706935773E-01
  0.130210915729E+00  0.205901140947E+00  0.283823402750E+00  0.363944811140E+00  0.446213507523E+00
  0.530554127868E+00  0.616862758710E+00  0.705001383574E+00  0.794791830878E+00  0.886009253548E+00
  0.978375189302E+00  0.107155027145E+01  0.116512668486E+01  0.125862048177E+01  0.135146391122E+01
  0.144299794253E+01  0.153246521162E+01  0.161900366900E+01  0.000000000000E+00  0.000000000000E+00
  0.000000000000E+00  0.000000000000E+00  0.000000000000E+00  0.000000000000E+00  0.000000000000E+00
  0.000000000000E+00  0.000000000000E+00  0.000000000000E+00  0.000000000000E+00  0.000000000000E+00
  0.000000000000E+00  0.000000000000E+00  0.000000000000E+00  0.000000000000E+00  0.000000000000E+00
  0.000000000000E+00  0.000000000000E+00  0.000000000000E+00  0.000000000000E+00  0.000000000000E+00
  0.000000000000E+00  0.000000000000E+00
 pseudo wavefunction
  0.446923703367E-04  0.461456547261E-04  0.476461962984E-04  0.491955317393E-04  0.507952477035E-04
  0.524469824401E-04  0.541524274698E-04  0.559133293172E-04  0.577314912998E-04  0.596087753743E-04
  0.615471040437E-04  0.635484623258E-04  0.656148997865E-04  0.677485326382E-04  0.699515459075E-04
  0.722261956725E-04  0.745748113732E-04  0.769997981974E-04  0.795036395435E-04  0.820888995639E-04
  0.847582257906E-04  0.875143518471E-04  0.903601002472E-04  0.932983852859E-04  0.963322160240E-04
  0.994646993691E-04  0.102699043258E-03  0.106038559941E-03  0.109486669376E-03  0.113046902728E-03
  0.116722905986E-03  0.120518443700E-03  0.124437402831E-03  0.128483796737E-03  0.132661769278E-03
  0.136975599062E-03  0.141429703830E-03  0.146028644973E-03  0.150777132209E-03  0.155680028404E-03
  0.160742354551E-03  0.165969294916E-03  0.171366202341E-03  0.176938603732E-03  0.182692205714E-03
  0.188632900479E-03  0.194766771818E-03  0.201100101349E-03  0.207639374957E-03  0.214391289429E-03
  0.221362759315E-03  0.228560924009E-03  0.235993155061E-03  0.243667063726E-03  0.251590508755E-03
  0.259771604449E-03  0.268218728965E-03  0.276940532896E-03  0.285945948132E-03  0.295244197004E-03
  0.304844801732E-03  0.314757594173E-03  0.324992725894E-03  0.335560678563E-03  0.346472274687E-03
  0.357738688694E-03  0.369371458376E-03  0.381382496705E-03  0.393784104034E-03  0.406588980691E-03
  0.419810239990E-03  0.433461421654E-03  0.447556505687E-03  0.462109926684E-03  0.477136588621E-03
  0.492651880112E-03  0.508671690170E-03  0.525212424479E-03  0.542291022197E-03  0.559924973299E-03
  0.578132336489E-03  0.596931757700E-03  0.616342489178E-03  0.636384409208E-03  0.657078042465E-03
  0.678444581037E-03  0.700505906124E-03  0.723284610450E-03  0.746804021394E-03  0.771088224887E-03
  0.796162090073E-03  0.822051294776E-03  0.848782351803E-03  0.876382636086E-03  0.904880412726E-03
  0.934304865930E-03  0.964686128905E-03  0.996055314715E-03  0.102844454814E-02  0.106188699858E-02
  0.109641691401E-02  0.113206965609E-02  0.116888173632E-02  0.120689085348E-02  0.124613593222E-02
  0.128665716292E-02  0.132849604284E-02  0.137169541865E-02  0.141629953025E-02  0.146235405614E-02
  0.150990616015E-02  0.155900453979E-02  0.160969947605E-02  0.166204288495E-02  0.171608837070E-02
  0.177189128055E-02  0.182950876154E-02  0.188899981895E-02  0.195042537679E-02  0.201384834015E-02
  0.207933365964E-02  0.214694839788E-02  0.221676179823E-02  0.228884535563E-02  0.236327288988E-02
  0.244012062118E-02  0.251946724824E-02  0.260139402885E-02  0.268598486307E-02  0.277332637920E-02
  0.286350802243E-02  0.295662214652E-02  0.305276410831E-02  0.315203236537E-02  0.325452857690E-02
  0.336035770775E-02  0.346962813597E-02  0.358245176377E-02  0.369894413210E-02  0.381922453904E-02
  0.394341616187E-02  0.407164618328E-02  0.420404592162E-02  0.434075096532E-02  0.448190131178E-02
  0.462764151073E-02  0.477812081226E-02  0.493349331964E-02  0.509391814715E-02  0.525955958302E-02
  0.543058725763E-02  0.560717631729E-02  0.578950760353E-02  0.597776783830E-02  0.617214981520E-02
  0.637285259692E-02  0.658008171901E-02  0.679404940044E-02  0.701497476085E-02  0.724308404497E-02
  0.747861085426E-02  0.772179638616E-02  0.797288968101E-02  0.823214787713E-02  0.849983647408E-02
  0.877622960453E-02  0.906161031497E-02  0.935627085552E-02  0.966051297919E-02  0.997464825084E-02
  0.102989983662E-01  0.106338954813E-01  0.109796825524E-01  0.113367136874E-01  0.117053545082E-01
  0.120859825250E-01  0.124789875231E-01  0.128847719616E-01  0.133037513856E-01  0.137363548518E-01
  0.141830253673E-01  0.146442203437E-01  0.151204120648E-01  0.156120881705E-01  0.161197521556E-01
  0.166439238855E-01  0.171851401280E-01  0.177439551032E-01  0.183209410502E-01  0.189166888131E-01
  0.195318084453E-01  0.201669298346E-01  0.208227033468E-01  0.214998004917E-01  0.221989146103E-01
  0.229207615838E-01  0.236660805662E-01  0.244356347403E-01  0.252302120985E-01  0.260506262485E-01
  0.268977172455E-01  0.277723524513E-01  0.286754274209E-01  0.296078668179E-01  0.305706253602E-01
  0.315646887949E-01  0.325910749063E-01  0.336508345550E-01  0.347450527518E-01  0.358748497650E-01
  0.370413822648E-01  0.382458445032E-01  0.394894695327E-01  0.407735304639E-01  0.420993417635E-01
  0.434682605938E-01  0.448816881953E-01  0.463410713132E-01  0.478479036694E-01  0.494037274820E-01
  0.510101350318E-01  0.526687702794E-01  0.543813305330E-01  0.561495681689E-01  0.579752924050E-01
  0.598603711310E-01  0.618067327943E-01  0.638163683449E-01  0.658913332388E-01  0.680337495040E-01
  0.702458078677E-01  0.725297699472E-01  0.748879705066E-01  0.773228197783E-01  0.798368058523E-01
  0.824324971327E-01  0.851125448631E-01  0.878796857204E-01  0.907367444780E-01  0.936866367368E-01
  0.967323717253E-01  0.998770551662E-01  0.103123892207E+00  0.106476190417E+00  0.109937362838E+00
  0.113510931095E+00  0.117200528557E+00  0.121009903535E+00  0.124942922526E+00  0.129003573468E+00
  0.133195969018E+00  0.137524349823E+00  0.141993087774E+00  0.146606689208E+00  0.151369798060E+00
  0.156287198898E+00  0.161363819839E+00  0.166604735285E+00  0.172015168427E+00  0.177600493475E+00
  0.183366237530E+00  0.189318082019E+00  0.195461863616E+00  0.201803574506E+00  0.208349361908E+00
  0.215105526660E+00  0.222078520738E+00  0.229274943477E+00  0.236701536271E+00  0.244365175488E+00
  0.252272863283E+00  0.260431715945E+00  0.268848949381E+00  0.277531861238E+00  0.286487809134E+00
  0.295724184366E+00  0.305248380377E+00  0.315067755169E+00  0.325189586729E+00  0.335621020411E+00
  0.346369007086E+00  0.357440230711E+00  0.368841023788E+00  0.380577269040E+00  0.392654285392E+00
  0.405076696169E+00  0.417848277189E+00  0.430971782222E+00  0.444448743043E+00  0.458279241120E+00
  0.472461647731E+00  0.486992329195E+00  0.501865313713E+00  0.517071916302E+00  0.532600318304E+00
  0.548435098120E+00  0.564556710127E+00  0.580940909247E+00  0.597558119418E+00  0.614372745304E+00
  0.631342428056E+00  0.648417247883E+00  0.665538878677E+00  0.682639703030E+00  0.699641899831E+00
  0.716456521209E+00  0.732982581066E+00  0.749106183734E+00  0.764699728465E+00  0.779621233411E+00
  0.793713831234E+00  0.806805497315E+00  0.818709080139E+00  0.829222711242E+00  0.838130678185E+00
  0.845204847245E+00  0.850206721391E+00  0.852886497828E+00  0.853092794810E+00  0.850838843372E+00
  0.846173887747E+00  0.839159272664E+00  0.829868352330E+00  0.818386334840E+00  0.804810048059E+00
  0.789247603710E+00  0.771817941694E+00  0.752650228631E+00  0.731883087661E+00  0.709663636490E+00
  0.686146316994E+00  0.661491511741E+00  0.635863958166E+00  0.609430993838E+00  0.582360680087E+00
  0.554819885046E+00  0.526972400443E+00  0.498977182587E+00  0.470986795381E+00  0.443146117188E+00
  0.415591349420E+00  0.388449336545E+00  0.361837178570E+00  0.335862090871E+00  0.310621445741E+00
  0.286202917754E+00  0.262684653105E+00
 ae wavefunction
 -0.110326213605E-02 -0.113821503178E-02 -0.117427196537E-02 -0.121146759578E-02 -0.124983765634E-02
 -0.128941898726E-02 -0.133024956891E-02 -0.137236855622E-02 -0.141581631389E-02 -0.146063445266E-02
 -0.150686586655E-02 -0.155455477123E-02 -0.160374674326E-02 -0.165448876061E-02 -0.170682924411E-02
 -0.176081810012E-02 -0.181650676430E-02 -0.187394824654E-02 -0.193319717713E-02 -0.199430985406E-02
 -0.205734429158E-02 -0.212236027005E-02 -0.218941938702E-02 -0.225858510961E-02 -0.232992282823E-02
 -0.240349991158E-02 -0.247938576308E-02 -0.255765187860E-02 -0.263837190559E-02 -0.272162170373E-02
 -0.280747940677E-02 -0.289602548603E-02 -0.298734281523E-02 -0.308151673678E-02 -0.317863512956E-02
 -0.327878847818E-02 -0.338206994365E-02 -0.348857543560E-02 -0.359840368594E-02 -0.371165632394E-02
 -0.382843795284E-02 -0.394885622788E-02 -0.407302193572E-02 -0.420104907530E-02 -0.433305494009E-02
 -0.446916020165E-02 -0.460948899452E-02 -0.475416900238E-02 -0.490333154543E-02 -0.505711166890E-02
 -0.521564823269E-02 -0.537908400199E-02 -0.554756573889E-02 -0.572124429479E-02 -0.590027470355E-02
 -0.608481627531E-02 -0.627503269078E-02 -0.647109209591E-02 -0.667316719674E-02 -0.688143535436E-02
 -0.709607867964E-02 -0.731728412771E-02 -0.754524359184E-02 -0.778015399652E-02 -0.802221738953E-02
 -0.827164103261E-02 -0.852863749058E-02 -0.879342471844E-02 -0.906622614616E-02 -0.934727076082E-02
 -0.963679318553E-02 -0.993503375494E-02 -0.102422385866E-01 -0.105586596477E-01 -0.108845548170E-01
 -0.112201879407E-01 -0.115658288821E-01 -0.119217535645E-01 -0.122882440059E-01 -0.126655883452E-01
 -0.130540808596E-01 -0.134540219709E-01 -0.138657182412E-01 -0.142894823560E-01 -0.147256330941E-01
 -0.151744952828E-01 -0.156363997377E-01 -0.161116831851E-01 -0.166006881660E-01 -0.171037629203E-01
 -0.176212612496E-01 -0.181535423558E-01 -0.187009706566E-01 -0.192639155719E-01 -0.198427512831E-01
 -0.204378564606E-01 -0.210496139579E-01 -0.216784104707E-01 -0.223246361578E-01 -0.229886842205E-01
 -0.236709504399E-01 -0.243718326662E-01 -0.250917302599E-01 -0.258310434795E-01 -0.265901728130E-01
 -0.273695182503E-01 -0.281694784914E-01 -0.289904500877E-01 -0.298328265119E-01 -0.306969971516E-01
 -0.315833462232E-01 -0.324922516004E-01 -0.334240835534E-01 -0.343792033928E-01 -0.353579620137E-01
 -0.363606983339E-01 -0.373877376216E-01 -0.384393897048E-01 -0.395159470593E-01 -0.406176827662E-01
 -0.417448483346E-01 -0.428976713818E-01 -0.440763531650E-01 -0.452810659578E-01 -0.465119502641E-01
 -0.477691118628E-01 -0.490526186764E-01 -0.503624974567E-01 -0.516987302793E-01 -0.530612508422E-01
 -0.544499405601E-01 -0.558646244471E-01 -0.573050667844E-01 -0.587709665625E-01 -0.602619526966E-01
 -0.617775790058E-01 -0.633173189550E-01 -0.648805601515E-01 -0.664665985971E-01 -0.680746326886E-01
 -0.697037569694E-01 -0.713529556287E-01 -0.730210957506E-01 -0.747069203152E-01 -0.764090409557E-01
 -0.781259304777E-01 -0.798559151478E-01 -0.815971667629E-01 -0.833476945125E-01 -0.851053366494E-01
 -0.868677519888E-01 -0.886324112562E-01 -0.903965883120E-01 -0.921573512813E-01 -0.939115536249E-01
 -0.956558251892E-01 -0.973865632804E-01 -0.990999238140E-01 -0.100791812593E+00 -0.102457876779E+00
 -0.104093496631E+00 -0.105693777573E+00 -0.107253542693E+00 -0.108767325757E+00 -0.110229364842E+00
 -0.111633596689E+00 -0.112973651911E+00 -0.114242851182E+00 -0.115434202531E+00 -0.116540399914E+00
 -0.117553823210E+00 -0.118466539822E+00 -0.119270308051E+00 -0.119956582465E+00 -0.120516521430E+00
 -0.120940997055E+00 -0.121220607752E+00 -0.121345693656E+00 -0.121306355149E+00 -0.121092474736E+00
 -0.120693742539E+00 -0.120099685662E+00 -0.119299701708E+00 -0.118283096698E+00 -0.117039127681E+00
 -0.115557050275E+00 -0.113826171417E+00 -0.111835907536E+00 -0.109575848414E+00 -0.107035826910E+00
 -0.104205994747E+00 -0.101076904510E+00 -0.976395979644E-01 -0.938857007740E-01 -0.898075236258E-01
 -0.853981697341E-01 -0.806516486087E-01 -0.755629959106E-01 -0.701283991261E-01 -0.643453286998E-01
 -0.582126741599E-01 -0.517308846526E-01 -0.449021131752E-01 -0.377303636548E-01 -0.302216398702E-01
 -0.223840950518E-01 -0.142281808314E-01 -0.576679405543E-02  0.298458016446E-02  0.120077308978E-01
  0.212815911331E-01  0.307821166193E-01  0.404821756113E-01  0.503514513302E-01  0.603563590488E-01
  0.704599799553E-01  0.806220143803E-01  0.907987575375E-01  0.100943101543E+00  0.111004567994E+00
  0.120929375683E+00  0.130660547962E+00  0.140138063828E+00  0.149299056011E+00  0.158078058433E+00
  0.166407304568E+00  0.174217077757E+00  0.181436114235E+00  0.187992059458E+00  0.193811977991E+00
  0.198822916670E+00  0.202952520095E+00  0.206129696637E+00  0.208285332381E+00  0.209353049499E+00
  0.209270004734E+00  0.207977722703E+00  0.205422957788E+00  0.201558577313E+00  0.196344457614E+00
  0.189748383457E+00  0.181746940060E+00  0.172326385786E+00  0.161483492431E+00  0.149226338895E+00
  0.135575043128E+00  0.120562416471E+00  0.104234524062E+00  0.866511349005E-01  0.678860454265E-01
  0.480272610934E-01  0.271770212328E-01  0.545165328548E-02 -0.170187569471E-01 -0.400908918639E-01
 -0.636089367889E-01 -0.874055292752E-01 -0.111302917091E+00 -0.135114296013E+00 -0.158645267995E+00
 -0.181695337928E+00 -0.204059382248E+00 -0.225529099115E+00 -0.245894575237E+00 -0.264946194895E+00
 -0.282477047280E+00 -0.298285740428E+00 -0.312179311486E+00 -0.323975944441E+00 -0.333507395109E+00
 -0.340621163229E+00 -0.345182470110E+00 -0.347076057297E+00 -0.346207778772E+00 -0.342505937345E+00
 -0.335922314701E+00 -0.326432856857E+00 -0.314037995179E+00 -0.298762601442E+00 -0.280655590637E+00
 -0.259789195930E+00 -0.236257948201E+00 -0.210177396773E+00 -0.181682610943E+00 -0.150926502786E+00
 -0.118078011389E+00 -0.833201871672E-01 -0.468482125139E-01 -0.886739185957E-02  0.304088591246E-01
  0.707609993190E-01  0.111965300428E+00  0.153795718713E+00  0.196025683891E+00  0.238429791856E+00
  0.280785389566E+00  0.322874043718E+00  0.364482884820E+00  0.405405823825E+00  0.445444637357E+00
  0.484409922936E+00  0.522121926719E+00  0.558411249018E+00  0.593119434497E+00  0.626099454962E+00
  0.657216092662E+00  0.686346232290E+00  0.713379068900E+00  0.738216239971E+00  0.760771890143E+00
  0.780972680236E+00  0.798757752681E+00  0.814078670413E+00  0.826899343699E+00  0.837195960664E+00
  0.844956931955E+00  0.850182854876E+00  0.852886497828E+00  0.853092794810E+00  0.850838843372E+00
  0.846173887747E+00  0.839159272664E+00  0.829868352330E+00  0.818386334840E+00  0.804810048059E+00
  0.789247603710E+00  0.771817941694E+00  0.752650228631E+00  0.731883087661E+00  0.709663636490E+00
  0.686146316994E+00  0.661491511741E+00  0.635863958166E+00  0.609430993838E+00  0.582360680087E+00
  0.554819885046E+00  0.526972400443E+00  0.498977182587E+00  0.470986795381E+00  0.443146117188E+00
  0.415591349420E+00  0.388449336545E+00  0.361837178570E+00  0.335862090871E+00  0.310621445741E+00
  0.286202917754E+00  0.262684653105E+00
 pseudo wavefunction
  0.946767925369E-04  0.977554456401E-04  0.100934208862E-03  0.104216337533E-03  0.107605192842E-03
  0.111104245270E-03  0.114717078154E-03  0.118447391351E-03  0.122299005027E-03  0.126275863571E-03
  0.130382039633E-03  0.134621738298E-03  0.138999301386E-03  0.143519211905E-03  0.148186098638E-03
  0.153004740885E-03  0.157980073356E-03  0.163117191228E-03  0.168421355357E-03  0.173897997671E-03
  0.179552726730E-03  0.185391333471E-03  0.191419797138E-03  0.197644291403E-03  0.204071190694E-03
  0.210707076716E-03  0.217558745196E-03  0.224633212842E-03  0.231937724527E-03  0.239479760708E-03
  0.247267045091E-03  0.255307552534E-03  0.263609517220E-03  0.272181441086E-03  0.281032102530E-03
  0.290170565404E-03  0.299606188292E-03  0.309348634096E-03  0.319407879932E-03  0.329794227346E-03
  0.340518312866E-03  0.351591118892E-03  0.363023984944E-03  0.374828619277E-03  0.387017110867E-03
  0.399601941794E-03  0.412596000025E-03  0.426012592610E-03  0.439865459313E-03  0.454168786678E-03
  0.468937222562E-03  0.484185891134E-03  0.499930408362E-03  0.516186898007E-03  0.532972008133E-03
  0.550302928161E-03  0.568197406465E-03  0.586673768554E-03  0.605750935837E-03  0.625448444997E-03
  0.645786468005E-03  0.666785832773E-03  0.688468044482E-03  0.710855307611E-03  0.733970548671E-03
  0.757837439687E-03  0.782480422439E-03  0.807924733492E-03  0.834196430040E-03  0.861322416595E-03
  0.889330472532E-03  0.918249280546E-03  0.948108456018E-03  0.978938577348E-03  0.101077121727E-02
  0.104363897518E-02  0.107757551054E-02  0.111261557730E-02  0.114879505957E-02  0.118615100827E-02
  0.122472167915E-02  0.126454657195E-02  0.130566647082E-02  0.134812348612E-02  0.139196109753E-02
  0.143722419858E-02  0.148395914262E-02  0.153221379031E-02  0.158203755860E-02  0.163348147137E-02
  0.168659821164E-02  0.174144217558E-02  0.179806952817E-02  0.185653826074E-02  0.191690825034E-02
  0.197924132109E-02  0.204360130744E-02  0.211005411961E-02  0.217866781103E-02  0.224951264806E-02
  0.232266118194E-02  0.239818832310E-02  0.247617141785E-02  0.255669032762E-02  0.263982751071E-02
  0.272566810677E-02  0.281430002396E-02  0.290581402898E-02  0.300030384005E-02  0.309786622283E-02
  0.319860108958E-02  0.330261160142E-02  0.341000427402E-02  0.352088908663E-02  0.363537959477E-02
  0.375359304646E-02  0.387565050231E-02  0.400167695951E-02  0.413180147983E-02  0.426615732176E-02
  0.440488207700E-02  0.454811781137E-02  0.469601121027E-02  0.484871372889E-02  0.500638174736E-02
  0.516917673081E-02  0.533726539480E-02  0.551081987597E-02  0.569001790840E-02  0.587504300551E-02
  0.606608464809E-02  0.626333847827E-02  0.646700649987E-02  0.667729728529E-02  0.689442618907E-02
  0.711861556839E-02  0.735009501084E-02  0.758910156943E-02  0.783588000542E-02  0.809068303888E-02
  0.835377160753E-02  0.862541513389E-02  0.890589180121E-02  0.919548883828E-02  0.949450281358E-02
  0.980323993892E-02  0.101220163830E-01  0.104511585951E-01  0.107910036395E-01  0.111418995405E-01
  0.115042056385E-01  0.118782929584E-01  0.122645445893E-01  0.126633560766E-01  0.130751358272E-01
  0.135003055273E-01  0.139393005746E-01  0.143925705237E-01  0.148605795464E-01  0.153438069070E-01
  0.158427474531E-01  0.163579121218E-01  0.168898284629E-01  0.174390411791E-01  0.180061126834E-01
  0.185916236749E-01  0.191961737329E-01  0.198203819311E-01  0.204648874708E-01  0.211303503353E-01
  0.218174519654E-01  0.225268959565E-01  0.232594087787E-01  0.240157405206E-01  0.247966656562E-01
  0.256029838375E-01  0.264355207131E-01  0.272951287719E-01  0.281826882163E-01  0.290991078617E-01
  0.300453260662E-01  0.310223116907E-01  0.320310650890E-01  0.330726191312E-01  0.341480402596E-01
  0.352584295788E-01  0.364049239810E-01  0.375886973084E-01  0.388109615524E-01  0.400729680919E-01
  0.413760089718E-01  0.427214182223E-01  0.441105732215E-01  0.455448961017E-01  0.470258552004E-01
  0.485549665593E-01  0.501337954705E-01  0.517639580733E-01  0.534471230018E-01  0.551850130854E-01
  0.569794071046E-01  0.588321416024E-01  0.607451127538E-01  0.627202782954E-01  0.647596595166E-01
  0.668653433140E-01  0.690394843114E-01  0.712843070473E-01  0.736021082316E-01  0.759952590734E-01
  0.784662076832E-01  0.810174815493E-01  0.836516900932E-01  0.863715273037E-01  0.891797744542E-01
  0.920793029027E-01  0.950730769799E-01  0.981641569641E-01  0.101355702148E+00  0.104650973999E+00
  0.108053339410E+00  0.111566274053E+00  0.115193365831E+00  0.118938318421E+00  0.122804954934E+00
  0.126797221665E+00  0.130919191956E+00  0.135175070161E+00  0.139569195719E+00  0.144106047330E+00
  0.148790247239E+00  0.153626565623E+00  0.158619925083E+00  0.163775405231E+00  0.169098247378E+00
  0.174593859314E+00  0.180267820160E+00  0.186125885316E+00  0.192173991459E+00  0.198418261602E+00
  0.204865010187E+00  0.211520748204E+00  0.218392188299E+00  0.225486249859E+00  0.232810064031E+00
  0.240370978643E+00  0.248176562984E+00  0.256234612378E+00  0.264553152503E+00  0.273140443377E+00
  0.282004982918E+00  0.291155509980E+00  0.300601006754E+00  0.310350700378E+00  0.320414063608E+00
  0.330800814350E+00  0.341520913833E+00  0.352584563177E+00  0.364002198025E+00  0.375784480934E+00
  0.387942291074E+00  0.400486710797E+00  0.413429008522E+00  0.426780617296E+00  0.440553108321E+00
  0.454758158589E+00  0.469407511670E+00  0.484512930524E+00  0.500086141066E+00  0.516138765011E+00
  0.532682240297E+00  0.549727727183E+00  0.567285997795E+00  0.585367306638E+00  0.603981239202E+00
  0.623136535458E+00  0.642840884592E+00  0.663100686873E+00  0.683920778062E+00  0.705304111228E+00
  0.727251390252E+00  0.749760648717E+00  0.772826767244E+00  0.796440921715E+00  0.820589954190E+00
  0.845255657766E+00  0.870413966101E+00  0.896034037944E+00  0.922077226793E+00  0.948495925838E+00
  0.975232278707E+00  0.100221674734E+01  0.102936652978E+01  0.105658382263E+01  0.108375392636E+01
  0.111074319536E+01  0.113739684088E+01  0.116353660184E+01  0.118895830820E+01  0.121342937315E+01
  0.123668626488E+01  0.125843202614E+01  0.127833393070E+01  0.129602139012E+01  0.131108425240E+01
  0.132307166586E+01  0.133149171617E+01  0.133581208208E+01  0.133546199356E+01  0.132983581370E+01
  0.131829859959E+01  0.130019402354E+01  0.127485504985E+01  0.124161775681E+01  0.119983866156E+01
  0.114891583740E+01  0.108831399877E+01  0.101759442253E+01  0.936546600973E+00  0.845279639259E+00
  0.744032156815E+00  0.633159281022E+00  0.513144651705E+00  0.000000000000E+00  0.000000000000E+00
  0.000000000000E+00  0.000000000000E+00  0.000000000000E+00  0.000000000000E+00  0.000000000000E+00
  0.000000000000E+00  0.000000000000E+00  0.000000000000E+00  0.000000000000E+00  0.000000000000E+00
  0.000000000000E+00  0.000000000000E+00  0.000000000000E+00  0.000000000000E+00  0.000000000000E+00
  0.000000000000E+00  0.000000000000E+00  0.000000000000E+00  0.000000000000E+00  0.000000000000E+00
  0.000000000000E+00  0.000000000000E+00
 ae wavefunction
 -0.212633375687E-02 -0.219369899766E-02 -0.226319206689E-02 -0.233487976324E-02 -0.240883095610E-02
 -0.248511664808E-02 -0.256381003934E-02 -0.264498659370E-02 -0.272872410660E-02 -0.281510277500E-02
 -0.290420526919E-02 -0.299611680658E-02 -0.309092522757E-02 -0.318872107341E-02 -0.328959766623E-02
 -0.339365119125E-02 -0.350098078112E-02 -0.361168860255E-02 -0.372587994519E-02 -0.384366331291E-02
 -0.396515051739E-02 -0.409045677410E-02 -0.421970080080E-02 -0.435300491853E-02 -0.449049515506E-02
 -0.463230135098E-02 -0.477855726837E-02 -0.492940070216E-02 -0.508497359403E-02 -0.524542214928E-02
 -0.541089695606E-02 -0.558155310778E-02 -0.575755032794E-02 -0.593905309804E-02 -0.612623078810E-02
 -0.631925779018E-02 -0.651831365461E-02 -0.672358322916E-02 -0.693525680093E-02 -0.715353024121E-02
 -0.737860515301E-02 -0.761068902144E-02 -0.784999536683E-02 -0.809674390060E-02 -0.835116068365E-02
 -0.861347828755E-02 -0.888393595804E-02 -0.916277978117E-02 -0.945026285160E-02 -0.974664544330E-02
 -0.100521951822E-01 -0.103671872210E-01 -0.106919044154E-01 -0.110266375027E-01 -0.113716852809E-01
 -0.117273547895E-01 -0.120939614917E-01 -0.124718294564E-01 -0.128612915409E-01 -0.132626895745E-01
 -0.136763745404E-01 -0.141027067583E-01 -0.145420560650E-01 -0.149948019939E-01 -0.154613339526E-01
 -0.159420513971E-01 -0.164373640043E-01 -0.169476918392E-01 -0.174734655188E-01 -0.180151263700E-01
 -0.185731265819E-01 -0.191479293511E-01 -0.197400090197E-01 -0.203498512033E-01 -0.209779529107E-01
 -0.216248226514E-01 -0.222909805316E-01 -0.229769583362E-01 -0.236832995960E-01 -0.244105596387E-01
 -0.251593056212E-01 -0.259301165430E-01 -0.267235832368E-01 -0.275403083363E-01 -0.283809062184E-01
 -0.292460029163E-01 -0.301362360037E-01 -0.310522544449E-01 -0.319947184104E-01 -0.329642990526E-01
 -0.339616782416E-01 -0.349875482551E-01 -0.360426114208E-01 -0.371275797062E-01 -0.382431742538E-01
 -0.393901248556E-01 -0.405691693642E-01 -0.417810530350E-01 -0.430265277948E-01 -0.443063514327E-01
 -0.456212867057E-01 -0.469721003568E-01 -0.483595620356E-01 -0.497844431189E-01 -0.512475154221E-01
 -0.527495497957E-01 -0.542913146001E-01 -0.558735740492E-01 -0.574970864178E-01 -0.591626021013E-01
 -0.608708615221E-01 -0.626225928712E-01 -0.644185096775E-01 -0.662593081935E-01 -0.681456645886E-01
 -0.700782319384E-01 -0.720576370004E-01 -0.740844767630E-01 -0.761593147583E-01 -0.782826771251E-01
 -0.804550484113E-01 -0.826768671017E-01 -0.849485208594E-01 -0.872703414682E-01 -0.896425994607E-01
 -0.920654984217E-01 -0.945391689504E-01 -0.970636622707E-01 -0.996389434736E-01 -0.102264884381E+00
 -0.104941256013E+00 -0.107667720654E+00 -0.110443823499E+00 -0.113268983863E+00 -0.116142485959E+00
 -0.119063469219E+00 -0.122030918151E+00 -0.125043651734E+00 -0.128100312330E+00 -0.131199354123E+00
 -0.134339031062E+00 -0.137517384335E+00 -0.140732229348E+00 -0.143981142229E+00 -0.147261445864E+00
 -0.150570195470E+00 -0.153904163729E+00 -0.157259825490E+00 -0.160633342080E+00 -0.164020545241E+00
 -0.167416920739E+00 -0.170817591671E+00 -0.174217301554E+00 -0.177610397206E+00 -0.180990811535E+00
 -0.184352046273E+00 -0.187687154762E+00 -0.190988724885E+00 -0.194248862241E+00 -0.197459173700E+00
 -0.200610751457E+00 -0.203694157742E+00 -0.206699410348E+00 -0.209615969148E+00 -0.212432723812E+00
 -0.215137982918E+00 -0.217719464708E+00 -0.220164289714E+00 -0.222458975556E+00 -0.224589434173E+00
 -0.226540971813E+00 -0.228298292112E+00 -0.229845502609E+00 -0.231166125087E+00 -0.232243110109E+00
 -0.233058856190E+00 -0.233595234033E+00 -0.233833616272E+00 -0.233754913215E+00 -0.233339615049E+00
 -0.232567841030E+00 -0.231419396153E+00 -0.229873835824E+00 -0.227910539049E+00 -0.225508790665E+00
 -0.222647873104E+00 -0.219307168204E+00 -0.215466269526E+00 -0.211105105616E+00 -0.206204074630E+00
 -0.200744190662E+00 -0.194707242071E+00 -0.188075962043E+00 -0.180834211504E+00 -0.172967174444E+00
 -0.164461565569E+00 -0.155305850077E+00 -0.145490475220E+00 -0.135008113133E+00 -0.123853914234E+00
 -0.112025770312E+00 -0.995245861657E-01 -0.863545584329E-01 -0.725234599643E-01 -0.580429278071E-01
 -0.429287525528E-01 -0.272011664854E-01 -0.108851276602E-01  0.598940322818E-02  0.233871965371E-01
  0.412675013985E-01  0.595838109766E-01  0.782836487465E-01  0.973083793067E-01  0.116593047425E+00
  0.136066249505E+00  0.155650042484E+00  0.175259896274E+00  0.194804697061E+00  0.214186809746E+00
  0.233302208428E+00  0.252040683668E+00  0.270286134474E+00  0.287916951381E+00  0.304806495279E+00
  0.320823675023E+00  0.335833625936E+00  0.349698490767E+00  0.362278304344E+00  0.373431982508E+00
  0.383018414918E+00  0.390897659965E+00  0.396932238461E+00  0.400988521169E+00  0.402938203582E+00
  0.402659859638E+00  0.400040564310E+00  0.394977573067E+00  0.387380044180E+00  0.377170787702E+00
  0.364288022679E+00  0.348687121808E+00  0.330342320453E+00  0.309248364586E+00  0.285422070084E+00
  0.258903763945E+00  0.229758576436E+00  0.198077552303E+00  0.163978548869E+00  0.127606889337E+00
  0.891357406899E-01  0.487661870818E-01  0.672697101162E-02 -0.367261244115E-01 -0.813112778665E-01
 -0.126722039802E+00 -0.172629163294E+00 -0.218682845135E+00 -0.264515321923E+00 -0.309743706975E+00
 -0.353972911317E+00 -0.396798522296E+00 -0.437809662633E+00 -0.476592095260E+00 -0.512732012296E+00
 -0.545820808526E+00 -0.575460657975E+00 -0.601270291091E+00 -0.622890415127E+00 -0.639988587034E+00
 -0.652263618045E+00 -0.659449623457E+00 -0.661319746861E+00 -0.657689504838E+00 -0.648419656170E+00
 -0.633418497795E+00 -0.612643513916E+00 -0.586102340442E+00 -0.553853042447E+00 -0.516003731562E+00
 -0.472711570831E+00 -0.424181229668E+00 -0.370662859411E+00 -0.312449665381E+00 -0.249875152539E+00
 -0.183310120741E+00 -0.113159482025E+00 -0.398589670730E-01  0.361282189506E-01  0.114314738292E+00
  0.194192415732E+00  0.275235449943E+00  0.356903512009E+00  0.438644708458E+00  0.519898393509E+00
  0.600097819871E+00  0.678672626133E+00  0.755051160352E+00  0.828662653532E+00  0.898939256520E+00
  0.965317967819E+00  0.102724248508E+01  0.108416502164E+01  0.113554813631E+01  0.118086662998E+01
  0.121960956646E+01  0.125128247915E+01  0.127540982700E+01  0.129153776883E+01  0.129923732845E+01
  0.129810803067E+01  0.128778208938E+01  0.126792923511E+01  0.123826225976E+01  0.119854334954E+01
  0.114859125595E+01  0.108828933048E+01  0.101759442253E+01  0.936546600973E+00  0.845279639259E+00
  0.744032156815E+00  0.633159281022E+00  0.513144651705E+00  0.000000000000E+00  0.000000000000E+00
  0.000000000000E+00  0.000000000000E+00  0.000000000000E+00  0.000000000000E+00  0.000000000000E+00
  0.000000000000E+00  0.000000000000E+00  0.000000000000E+00  0.000000000000E+00  0.000000000000E+00
  0.000000000000E+00  0.000000000000E+00  0.000000000000E+00  0.000000000000E+00  0.000000000000E+00
  0.000000000000E+00  0.000000000000E+00  0.000000000000E+00  0.000000000000E+00  0.000000000000E+00
  0.000000000000E+00  0.000000000000E+00
 pseudo wavefunction
  0.339675896361E-08  0.362125891133E-08  0.386059659907E-08  0.411575268869E-08  0.438777265629E-08
  0.467777107601E-08  0.498693618689E-08  0.531653476150E-08  0.566791729647E-08  0.604252354600E-08
  0.644188842107E-08  0.686764827862E-08  0.732154762635E-08  0.780544627065E-08  0.832132693698E-08
  0.887130339387E-08  0.945762911389E-08  0.100827065070E-07  0.107490967642E-07  0.114595303518E-07
  0.122169181991E-07  0.130243636256E-07  0.138851750569E-07  0.148028795801E-07  0.157812373962E-07
  0.168242572266E-07  0.179362127390E-07  0.191216600578E-07  0.203854564327E-07  0.217327801407E-07
  0.231691517034E-07  0.247004565070E-07  0.263329689170E-07  0.280733779867E-07  0.299288148650E-07
  0.319068820153E-07  0.340156843662E-07  0.362638625206E-07  0.386606281591E-07  0.412158017848E-07
  0.439398529609E-07  0.468439432094E-07  0.499399717438E-07  0.532406242253E-07  0.567594247407E-07
  0.605107912158E-07  0.645100944920E-07  0.687737213060E-07  0.733191414333E-07  0.781649792685E-07
  0.833310901370E-07  0.888386416499E-07  0.947102004365E-07  0.100969824608E-06  0.107643162335E-06
  0.114757556934E-06  0.122342158910E-06  0.130428045391E-06  0.139048347469E-06  0.148238385947E-06
  0.158035816065E-06  0.168480781788E-06  0.179616080288E-06  0.191487337306E-06  0.204143194098E-06
  0.217635506733E-06  0.232019558572E-06  0.247354286783E-06  0.263702523834E-06  0.281131254936E-06
  0.299711892511E-06  0.319520568800E-06  0.340638447799E-06  0.363152057825E-06  0.387153646056E-06
  0.412741556502E-06  0.440020632957E-06  0.469102648592E-06  0.500106763921E-06  0.533160015061E-06
  0.568397834238E-06  0.605964604709E-06  0.646014252356E-06  0.688710876379E-06  0.734229421671E-06
  0.782756395639E-06  0.834490632388E-06  0.889644107429E-06  0.948442806215E-06  0.101112765009E-05
  0.107795548345E-05  0.114920012608E-05  0.122515349518E-05  0.130612680138E-05  0.139245182391E-05
  0.148448227003E-05  0.158259522431E-05  0.168719269365E-05  0.179870325445E-05  0.191758380866E-05
  0.204432145588E-05  0.217943548914E-05  0.232347952263E-05  0.247704376010E-05  0.264075741304E-05
  0.281529127886E-05  0.300136048931E-05  0.319972744064E-05  0.341120491736E-05  0.363665942251E-05
  0.387701472797E-05  0.413325565946E-05  0.440643213164E-05  0.469766344994E-05  0.500814289671E-05
  0.533914262036E-05  0.569201884777E-05  0.606821744111E-05  0.646927982185E-05  0.689684928643E-05
  0.735267773917E-05  0.783863287028E-05  0.835670580814E-05  0.890901927742E-05  0.949783629623E-05
  0.101255694482E-04  0.107947907671E-04  0.115082422750E-04  0.122688472166E-04  0.130797220361E-04
  0.139441891458E-04  0.148657905377E-04  0.158483022960E-04  0.168957500673E-04  0.180124255540E-04
  0.192029040970E-04  0.204720634211E-04  0.218251036185E-04  0.232675684528E-04  0.248053680714E-04
  0.264448032183E-04  0.281925910467E-04  0.300558926377E-04  0.320423423370E-04  0.341600790305E-04
  0.364177794857E-04  0.388246938970E-04  0.413906837793E-04  0.441262623645E-04  0.470426376683E-04
  0.501517584018E-04  0.534663629159E-04  0.570000313801E-04  0.607672414079E-04  0.647834273572E-04
  0.690650435480E-04  0.736296316561E-04  0.784958925585E-04  0.836837629251E-04  0.892144968680E-04
  0.951107529851E-04  0.101396687152E-03  0.108098051440E-03  0.115242299572E-03  0.122858699335E-03
  0.130978452422E-03  0.139634822182E-03  0.148863269807E-03  0.158701599508E-03  0.169190113279E-03
  0.180371775870E-03  0.192292390654E-03  0.205000787100E-03  0.218549020613E-03  0.232992585568E-03
  0.248390642395E-03  0.264806259641E-03  0.282306672006E-03  0.300963555393E-03  0.320853320095E-03
  0.342057423319E-03  0.364662702300E-03  0.388761729388E-03  0.414453190519E-03  0.441842288631E-03
  0.471041173658E-03  0.502169400831E-03  0.535354419166E-03  0.570732092103E-03  0.608447252409E-03
  0.648654293587E-03  0.691517800186E-03  0.737213219548E-03  0.785927577714E-03  0.837860242357E-03
  0.893223735836E-03  0.952244601607E-03  0.101516432751E-02  0.108224032959E-02  0.115374700043E-02
  0.122997682617E-02  0.131124157664E-02  0.139787357342E-02  0.149022704080E-02  0.158867954503E-02
  0.169363352757E-02  0.180551793834E-02  0.192478997552E-02  0.205193693858E-02  0.218747820197E-02
  0.233196731705E-02  0.248599425047E-02  0.265018776781E-02  0.282521797149E-02  0.301179900291E-02
  0.321069191903E-02  0.342270775453E-02  0.364871078104E-02  0.388962197580E-02  0.414642271285E-02
  0.442015869045E-02  0.471194410928E-02  0.502296611696E-02  0.535448953498E-02  0.570786188522E-02
  0.608451873425E-02  0.648598937429E-02  0.691390286090E-02  0.736999442855E-02  0.785611230600E-02
  0.837422495488E-02  0.892642875550E-02  0.951495616554E-02  0.101421843779E-01  0.108106445057E-01
  0.115230313225E-01  0.122822135884E-01  0.130912449924E-01  0.139533757430E-01  0.148720648403E-01
  0.158509930625E-01  0.168940767019E-01  0.180054820859E-01  0.191896409171E-01  0.204512664695E-01
  0.217953706760E-01  0.232272821424E-01  0.247526651233E-01  0.263775394919E-01  0.281083017378E-01
  0.299517470201E-01  0.319150923054E-01  0.340060006111E-01  0.362326063749E-01  0.386035419636E-01
  0.411279653260E-01  0.438155887915E-01  0.466767090004E-01  0.497222379467E-01  0.529637350972E-01
  0.564134405372E-01  0.600843090751E-01  0.639900452197E-01  0.681451389178E-01  0.725649019176E-01
  0.772655045904E-01  0.822640130113E-01  0.875784260610E-01  0.932277122692E-01  0.992318460724E-01
  0.105611843105E+00  0.112389794089E+00  0.119588896812E+00  0.127233485632E+00  0.135349057845E+00
  0.143962296192E+00  0.153101086667E+00  0.162794530715E+00  0.173072950774E+00  0.183967888025E+00
  0.195512091080E+00  0.207739494222E+00  0.220685183661E+00  0.234385350141E+00  0.248877226087E+00
  0.264199005317E+00  0.280389743192E+00  0.297489234908E+00  0.315537869456E+00  0.334576456603E+00
  0.354646024014E+00  0.375787581450E+00  0.398041848711E+00  0.421448943693E+00  0.446048026594E+00
  0.471876895883E+00  0.498971531102E+00  0.527365576910E+00  0.557089761927E+00  0.588171244857E+00
  0.620632878963E+00  0.654492384247E+00  0.689761414483E+00  0.726444503548E+00  0.764537872214E+00
  0.804028072599E+00  0.844890442885E+00  0.887087339666E+00  0.930566109490E+00  0.975256755127E+00
  0.102106924615E+01  0.106789041822E+01  0.111558040200E+01  0.116396852209E+01  0.121284861054E+01
  0.126197369080E+01  0.131105000839E+01  0.135973157287E+01  0.140775888338E+01  0.145512912395E+01
  0.150188268967E+01  0.154807467059E+01  0.159377661247E+01  0.000000000000E+00  0.000000000000E+00
  0.000000000000E+00  0.000000000000E+00  0.000000000000E+00  0.000000000000E+00  0.000000000000E+00
  0.000000000000E+00  0.000000000000E+00  0.000000000000E+00  0.000000000000E+00  0.000000000000E+00
  0.000000000000E+00  0.000000000000E+00  0.000000000000E+00  0.000000000000E+00  0.000000000000E+00
  0.000000000000E+00  0.000000000000E+00  0.000000000000E+00  0.000000000000E+00  0.000000000000E+00
  0.000000000000E+00  0.000000000000E+00
 ae wavefunction
  0.205548849370E-05  0.217717667615E-05  0.230563128344E-05  0.244125535055E-05  0.258447486466E-05
  0.273574016045E-05  0.289552739672E-05  0.306434012239E-05  0.324271093464E-05  0.343120323767E-05
  0.363041310672E-05  0.384097126348E-05  0.406354517262E-05  0.429884126397E-05  0.454760729124E-05
  0.481063483192E-05  0.508876194266E-05  0.538287597535E-05  0.569391656554E-05  0.602287880528E-05
  0.637081661035E-05  0.673884629479E-05  0.712815036614E-05  0.753998155448E-05  0.797566709054E-05
  0.843661324948E-05  0.892431017429E-05  0.944033699972E-05  0.998636729590E-05  0.105641748431E-04
  0.111756397772E-04  0.118227551059E-04  0.125076336402E-04  0.132325153515E-04  0.139997751926E-04
  0.148119314039E-04  0.156716543405E-04  0.165817758513E-04  0.175452992446E-04  0.185654098786E-04
  0.196454864146E-04  0.207891127771E-04  0.220000908633E-04  0.232824540507E-04  0.246404815528E-04
  0.260787136766E-04  0.276019680387E-04  0.292153568003E-04  0.309243049862E-04  0.327345699549E-04
  0.346522620929E-04  0.366838668102E-04  0.388362679186E-04  0.411167724797E-04  0.435331372140E-04
  0.460935965703E-04  0.488068925573E-04  0.516823064497E-04  0.547296924829E-04  0.579595136624E-04
  0.613828798186E-04  0.650115880459E-04  0.688581656731E-04  0.729359159254E-04  0.772589664362E-04
  0.818423207966E-04  0.867019133130E-04  0.918546671879E-04  0.973185563132E-04  0.103112670920E-03
  0.109257287293E-03  0.115773941822E-03  0.122685509637E-03  0.130016288105E-03  0.137792085490E-03
  0.146040315079E-03  0.154790095103E-03  0.164072354800E-03  0.173919946982E-03  0.184367767499E-03
  0.195452881991E-03  0.207214660387E-03  0.219694919565E-03  0.232938074683E-03  0.246991299664E-03
  0.261904697381E-03  0.277731480076E-03  0.294528160634E-03  0.312354755291E-03  0.331274998454E-03
  0.351356570299E-03  0.372671337875E-03  0.395295610450E-03  0.419310409894E-03  0.444801756932E-03
  0.471860974120E-03  0.500585006446E-03  0.531076760517E-03  0.563445463309E-03  0.597807041504E-03
  0.634284522504E-03  0.673008458236E-03  0.714117372904E-03  0.757758235916E-03  0.804086961211E-03
  0.853268934348E-03  0.905479568622E-03  0.960904891667E-03  0.101974216397E-02  0.108220053073E-02
  0.114850170865E-02  0.121888070919E-02  0.129358659985E-02  0.137288330514E-02  0.145705044891E-02
  0.154638423969E-02  0.164119840070E-02  0.174182514636E-02  0.184861620686E-02  0.196194390261E-02
  0.208220227016E-02  0.220980824136E-02  0.234520287729E-02  0.248885265852E-02  0.264125083325E-02
  0.280291882469E-02  0.297440769892E-02  0.315629969449E-02  0.334920981450E-02  0.355378748234E-02
  0.377071826115E-02  0.400072563780E-02  0.424457287097E-02  0.450306490327E-02  0.477705033648E-02
  0.506742346891E-02  0.537512639296E-02  0.570115115091E-02  0.604654194584E-02  0.641239740427E-02
  0.679987288605E-02  0.721018283648E-02  0.764460317418E-02  0.810447370784E-02  0.859120057320E-02
  0.910625868072E-02  0.965119416295E-02  0.102276268089E-01  0.108372524711E-01  0.114818454297E-01
  0.121632606956E-01  0.128834362311E-01  0.136443950686E-01  0.144482472991E-01  0.152971919060E-01
  0.161935184111E-01  0.171396083024E-01  0.181379362041E-01  0.191910707509E-01  0.203016751222E-01
  0.214725071886E-01  0.227064192189E-01  0.240063570925E-01  0.253753589564E-01  0.268165532615E-01
  0.283331561099E-01  0.299284678369E-01  0.316058687489E-01  0.333688139328E-01  0.352208270452E-01
  0.371654929880E-01  0.392064493686E-01  0.413473766395E-01  0.435919868068E-01  0.459440105920E-01
  0.484071829283E-01  0.509852266666E-01  0.536818343658E-01  0.565006480361E-01  0.594452367059E-01
  0.625190716777E-01  0.657254993432E-01  0.690677114254E-01  0.725487125217E-01  0.761712848254E-01
  0.799379499096E-01  0.838509274691E-01  0.879120909239E-01  0.921229198062E-01  0.964844488677E-01
  0.100997213865E+00  0.105661194011E+00  0.110475751093E+00  0.115439565319E+00  0.120550567962E+00
  0.125805870928E+00  0.131201693435E+00  0.136733286015E+00  0.142394852147E+00  0.148179467870E+00
  0.154078999811E+00  0.160084022154E+00  0.166183733154E+00  0.172365871886E+00  0.178616636019E+00
  0.184920601481E+00  0.191260644920E+00  0.197617869926E+00  0.203971537922E+00  0.210299004615E+00
  0.216575662761E+00  0.222774891989E+00  0.228868016377E+00  0.234824270695E+00  0.240610776622E+00
  0.246192530864E+00  0.251532407919E+00  0.256591180950E+00  0.261327564832E+00  0.265698285597E+00
  0.269658180240E+00  0.273160330124E+00  0.276156230148E+00  0.278595994531E+00  0.280428599107E+00
  0.281602159448E+00  0.282064244265E+00  0.281762223878E+00  0.280643653904E+00  0.278656694295E+00
  0.275750563546E+00  0.271876027357E+00  0.266985920412E+00  0.261035699380E+00  0.253984024642E+00
  0.245793367702E+00  0.236430640564E+00  0.225867842718E+00  0.214082720552E+00  0.201059433203E+00
  0.186789217913E+00  0.171271047048E+00  0.154512267924E+00  0.136529215685E+00  0.117347788540E+00
  0.970039739407E-01  0.755443136689E-01  0.530262954705E-01  0.295186588069E-01  0.510160247683E-02
 -0.201331177966E-01 -0.460822134160E-01 -0.726310201840E-01 -0.996538007261E-01 -0.127014204200E+00
 -0.154565893820E+00 -0.182153345780E+00 -0.209612806087E+00 -0.236773361647E+00 -0.263458045490E+00
 -0.289484876300E+00 -0.314667767203E+00 -0.338817353454E+00 -0.361741956633E+00 -0.383249006167E+00
 -0.403147117162E+00 -0.421248675925E+00 -0.437372508583E+00 -0.451346270957E+00 -0.463008470270E+00
 -0.472210213831E+00 -0.478816793244E+00 -0.482709146697E+00 -0.483785180330E+00 -0.481960897963E+00
 -0.477171284115E+00 -0.469370897870E+00 -0.458534155310E+00 -0.444655297979E+00 -0.427748060844E+00
 -0.407845063604E+00 -0.384996956661E+00 -0.359271356204E+00 -0.330751605014E+00 -0.299535395691E+00
 -0.265733292080E+00 -0.229467182711E+00 -0.190868697488E+00 -0.150077615236E+00 -0.107240286655E+00
 -0.625080928976E-01 -0.160359569432E-01  0.320190784352E-01  0.814991950864E-01  0.132247057373E+00
  0.184106976493E+00  0.236925976049E+00  0.290554754123E+00  0.344848540466E+00  0.399667847195E+00
  0.454879115058E+00  0.510355258753E+00  0.565976117194E+00  0.621628816415E+00  0.677208053992E+00
  0.732616314120E+00  0.787764022917E+00  0.842569652745E+00  0.896959785669E+00  0.950869147077E+00
  0.100424062518E+01  0.105702529441E+01  0.110918246944E+01  0.116067981698E+01  0.121149355847E+01
  0.126160879445E+01  0.131101997931E+01  0.135973157287E+01  0.140775888338E+01  0.145512912395E+01
  0.150188268967E+01  0.154807467059E+01  0.159377661247E+01  0.000000000000E+00  0.000000000000E+00
  0.000000000000E+00  0.000000000000E+00  0.000000000000E+00  0.000000000000E+00  0.000000000000E+00
  0.000000000000E+00  0.000000000000E+00  0.000000000000E+00  0.000000000000E+00  0.000000000000E+00
  0.000000000000E+00  0.000000000000E+00  0.000000000000E+00  0.000000000000E+00  0.000000000000E+00
  0.000000000000E+00  0.000000000000E+00  0.000000000000E+00  0.000000000000E+00  0.000000000000E+00
  0.000000000000E+00  0.000000000000E+00
 pseudo wavefunction
  0.731884471222E-08  0.780256471459E-08  0.831825493213E-08  0.886802835304E-08  0.945413761797E-08
  0.100789842500E-07  0.107451284946E-07  0.114552998100E-07  0.122124080510E-07  0.130195553914E-07
  0.138800490355E-07  0.147974147682E-07  0.157754114023E-07  0.168180461795E-07  0.179295911896E-07
  0.191146008752E-07  0.203779306928E-07  0.217247570077E-07  0.231605983036E-07  0.246913377940E-07
  0.263232475281E-07  0.280630140898E-07  0.299177659953E-07  0.318951029018E-07  0.340031267457E-07
  0.362504749399E-07  0.386463557647E-07  0.412005860977E-07  0.439236316371E-07  0.468266497847E-07
  0.499215353612E-07  0.532209693448E-07  0.567384708297E-07  0.604884524194E-07  0.644862792809E-07
  0.687483321018E-07  0.732920742086E-07  0.781361231207E-07  0.833003268338E-07  0.888058451452E-07
  0.946752363537E-07  0.100932549690E-06  0.107603423855E-06  0.114715192075E-06  0.122296994091E-06
  0.130379895562E-06  0.138997015349E-06  0.148183661217E-06  0.157977474506E-06  0.168418584363E-06
  0.179549772164E-06  0.191416646807E-06  0.204067831595E-06  0.217555163455E-06  0.231933905343E-06
  0.247262972674E-06  0.263605174723E-06  0.281027471978E-06  0.299601250505E-06  0.319402614443E-06
  0.340512697834E-06  0.363017997060E-06  0.387010725254E-06  0.412589190130E-06  0.439858196792E-06
  0.468929477158E-06  0.499922147773E-06  0.532963197872E-06  0.568188009704E-06  0.605740913250E-06
  0.645775777594E-06  0.688456641387E-06  0.733958384973E-06  0.782467446946E-06  0.834182588056E-06
  0.889315705608E-06  0.948092701690E-06  0.101075440878E-05  0.107755757650E-05  0.114877592369E-05
  0.122470125984E-05  0.130564468081E-05  0.139193784349E-05  0.148393432471E-05  0.158201106998E-05
  0.168656993799E-05  0.179803934715E-05  0.191687603097E-05  0.204356690950E-05  0.217863108438E-05
  0.232262196580E-05  0.247612954000E-05  0.263978278669E-05  0.281425225615E-05  0.300025281673E-05
  0.319854658390E-05  0.340994604291E-05  0.363531737779E-05  0.387558402039E-05  0.413173043400E-05
  0.440480614699E-05  0.469593005307E-05  0.500629499570E-05  0.533717265559E-05  0.568991876111E-05
  0.606597864310E-05  0.646689315681E-05  0.689430499519E-05  0.734996541943E-05  0.783574143436E-05
  0.835362343798E-05  0.890573337660E-05  0.949433343896E-05  0.101218353249E-04  0.107908101264E-04
  0.115039988622E-04  0.122643237080E-04  0.130748999688E-04  0.139390488433E-04  0.148603110309E-04
  0.158424612386E-04  0.168895236459E-04  0.180057883924E-04  0.191958291550E-04  0.204645218855E-04
  0.218170647884E-04  0.232589996171E-04  0.247962343783E-04  0.264350675367E-04  0.281822138190E-04
  0.300448317232E-04  0.320305528454E-04  0.341475131449E-04  0.364043862750E-04  0.388104191162E-04
  0.413754696574E-04  0.441100473799E-04  0.470253563100E-04  0.501333409160E-04  0.534467350379E-04
  0.569791140493E-04  0.607449504664E-04  0.647596732303E-04  0.690397309062E-04  0.736026590570E-04
  0.784671520688E-04  0.836531397203E-04  0.891818688107E-04  0.950759901787E-04  0.101359651471E-03
  0.108058596034E-03  0.115200268347E-03  0.122813926401E-03  0.130930761520E-03  0.139584026080E-03
  0.148809169664E-03  0.158643984215E-03  0.169128758764E-03  0.180306444380E-03  0.192222830003E-03
  0.204926729886E-03  0.218470183419E-03  0.232908668124E-03  0.248301326719E-03  0.264711209163E-03
  0.282205530670E-03  0.300855946745E-03  0.320738846364E-03  0.341935664491E-03  0.364533215204E-03
  0.388624046789E-03  0.414306820243E-03  0.441686712729E-03  0.470875847618E-03  0.501993752872E-03
  0.535167849625E-03  0.570533972939E-03  0.608236926866E-03  0.648431076038E-03  0.691280976205E-03
  0.736962046258E-03  0.785661284462E-03  0.837578031787E-03  0.892924785417E-03  0.951928065725E-03
  0.101482934019E-02  0.108188600801E-02  0.115337244927E-02  0.122958114304E-02  0.131082385872E-02
  0.139743292545E-02  0.148976258475E-02  0.158819043159E-02  0.169311894986E-02  0.180497714809E-02
  0.192422230215E-02  0.205134181159E-02  0.218685517715E-02  0.233131610704E-02  0.248531476041E-02
  0.264948013667E-02  0.282448262009E-02  0.301103668937E-02  0.320990380301E-02  0.342189547121E-02
  0.364787652643E-02  0.388876860496E-02  0.414555385271E-02  0.441927886941E-02  0.471105890592E-02
  0.502208233041E-02  0.535361538003E-02  0.570700721563E-02  0.608369529796E-02  0.648521110502E-02
  0.691318621108E-02  0.736935874908E-02  0.785558027926E-02  0.837382308806E-02  0.892618794234E-02
  0.951491232559E-02  0.101423791836E-01  0.108111262084E-01  0.115238556914E-01  0.122834449759E-01
  0.130929575431E-01  0.139556547644E-01  0.148750083561E-01  0.158547135712E-01  0.168987031680E-01
  0.180111621903E-01  0.191965436012E-01  0.204595848080E-01  0.218053251182E-01  0.232391241670E-01
  0.247666813546E-01  0.263940563333E-01  0.281276905800E-01  0.299744300918E-01  0.319415492357E-01
  0.340367757831E-01  0.362683171550E-01  0.386448878953E-01  0.411757383892E-01  0.438706848273E-01
  0.467401404133E-01  0.497951477969E-01  0.530474126997E-01  0.565093386861E-01  0.601940630098E-01
  0.641154934429E-01  0.682883459675E-01  0.727281831753E-01  0.774514531859E-01  0.824755288472E-01
  0.878187469335E-01  0.935004469953E-01  0.995410094504E-01  0.105961892426E+00  0.112785666772E+00
  0.120036048568E+00  0.127737928323E+00  0.135917395944E+00  0.144601760381E+00  0.153819562718E+00
  0.163600581235E+00  0.173975826802E+00  0.184977526675E+00  0.196639094501E+00  0.208995084034E+00
  0.222081123699E+00  0.235933828749E+00  0.250590687333E+00  0.266089916305E+00  0.282470282062E+00
  0.299770881106E+00  0.318030874414E+00  0.337289168934E+00  0.357584038839E+00  0.378952678298E+00
  0.401430676698E+00  0.425051406326E+00  0.449845311589E+00  0.475839087922E+00  0.503054737557E+00
  0.531508488504E+00  0.561209562236E+00  0.592158774993E+00  0.624346957151E+00  0.657753175066E+00
  0.692342740124E+00  0.728064990709E+00  0.764850834521E+00  0.802610041427E+00  0.841228281043E+00
  0.880563904834E+00  0.920444480111E+00  0.960663093227E+00  0.100097445213E+01  0.104109083465E+01
  0.108067794907E+01  0.111935079834E+01  0.115666966926E+01  0.119213640335E+01  0.122519114804E+01
  0.125520983440E+01  0.128150268184E+01  0.130331408941E+01  0.131982433676E+01  0.133015358321E+01
  0.133336871698E+01  0.132849366370E+01  0.131452380743E+01  0.129044519963E+01  0.125525922102E+01
  0.120801330502E+01  0.114783821441E+01  0.107399307724E+01  0.986023508447E+00  0.883894901424E+00
  0.767825426909E+00  0.638299047118E+00  0.496105666477E+00  0.000000000000E+00  0.000000000000E+00
  0.000000000000E+00  0.000000000000E+00  0.000000000000E+00  0.000000000000E+00  0.000000000000E+00
  0.000000000000E+00  0.000000000000E+00  0.000000000000E+00  0.000000000000E+00  0.000000000000E+00
  0.000000000000E+00  0.000000000000E+00  0.000000000000E+00  0.000000000000E+00  0.000000000000E+00
  0.000000000000E+00  0.000000000000E+00  0.000000000000E+00  0.000000000000E+00  0.000000000000E+00
  0.000000000000E+00  0.000000000000E+00
 ae wavefunction
  0.310028777799E-05  0.328382993312E-05  0.347757787501E-05  0.368213950126E-05  0.389815732825E-05
  0.412631059573E-05  0.436731749392E-05  0.462193752559E-05  0.489097400700E-05  0.517527672066E-05
  0.547574472681E-05  0.579332934294E-05  0.612903730601E-05  0.648393412413E-05  0.685914763428E-05
  0.725587177285E-05  0.767537058079E-05  0.811898245114E-05  0.858812463639E-05  0.908429803413E-05
  0.960909226586E-05  0.101641910684E-04  0.107513780185E-04  0.113725426093E-04  0.120296867037E-04
  0.127249313872E-04  0.134605242434E-04  0.142388470823E-04  0.150624241508E-04  0.159339308430E-04
  0.168562029694E-04  0.178322465852E-04  0.188652484449E-04  0.199585870997E-04  0.211158446930E-04
  0.223408194895E-04  0.236375391885E-04  0.250102750710E-04  0.264635570302E-04  0.280021895457E-04
  0.296312686564E-04  0.313562000002E-04  0.331827179836E-04  0.351169061551E-04  0.371652188582E-04
  0.393345042443E-04  0.416320287310E-04  0.440655029986E-04  0.466431096197E-04  0.493735324265E-04
  0.522659877239E-04  0.553302574652E-04  0.585767245142E-04  0.620164101223E-04  0.656610137627E-04
  0.695229554662E-04  0.736154208175E-04  0.779524087761E-04  0.825487824992E-04  0.874203233523E-04
  0.925837883072E-04  0.980569709365E-04  0.103858766226E-03  0.110009239445E-03  0.116529699320E-03
  0.123442775782E-03  0.130772502561E-03  0.138544404937E-03  0.146785592947E-03  0.155524860397E-03
  0.164792790021E-03  0.174621865163E-03  0.185046588387E-03  0.196103607415E-03  0.207831848852E-03
  0.220272660153E-03  0.233469960333E-03  0.247470399945E-03  0.262323530856E-03  0.278081986442E-03
  0.294801672759E-03  0.312541971410E-03  0.331365954714E-03  0.351340613957E-03  0.372537101453E-03
  0.395030987221E-03  0.418902531120E-03  0.444236971330E-03  0.471124830098E-03  0.499662237750E-03
  0.529951275964E-03  0.562100341419E-03  0.596224530932E-03  0.632446049261E-03  0.670894640857E-03
  0.711708046821E-03  0.755032488462E-03  0.801023178877E-03  0.849844864030E-03  0.901672394891E-03
  0.956691332268E-03  0.101509858600E-02  0.107710309027E-02  0.114292651692E-02  0.121280402850E-02
  0.128698507327E-02  0.136573422394E-02  0.144933206241E-02  0.153807611256E-02  0.163228182345E-02
  0.173228360512E-02  0.183843591934E-02  0.195111442781E-02  0.207071720018E-02  0.219766598435E-02
  0.233240754174E-02  0.247541504989E-02  0.262718957512E-02  0.278826161772E-02  0.295919273232E-02
  0.314057722592E-02  0.333304393608E-02  0.353725809176E-02  0.375392325915E-02  0.398378337462E-02
  0.422762486702E-02  0.448627887124E-02  0.476062353464E-02  0.505158641793E-02  0.536014699163E-02
  0.568733922895E-02  0.603425429550E-02  0.640204333589E-02  0.679192035660E-02  0.720516520402E-02
  0.764312663595E-02  0.810722548383E-02  0.859895790244E-02  0.911989870275E-02  0.967170476232E-02
  0.102561185069E-01  0.108749714550E-01  0.115301878169E-01  0.122237881358E-01  0.129578929594E-01
  0.137347265277E-01  0.145566204593E-01  0.154260174168E-01  0.163454747321E-01  0.173176679643E-01
  0.183453943655E-01  0.194315762222E-01  0.205792640398E-01  0.217916395317E-01  0.230720183720E-01
  0.244238526650E-01  0.258507330819E-01  0.273563906094E-01  0.289446978484E-01  0.306196697977E-01
  0.323854640511E-01  0.342463803282E-01  0.362068592566E-01  0.382714803119E-01  0.404449588195E-01
  0.427321419111E-01  0.451380033228E-01  0.476676369160E-01  0.503262487902E-01  0.531191478523E-01
  0.560517346989E-01  0.591294886570E-01  0.623579528255E-01  0.657427169487E-01  0.692893979463E-01
  0.730036179208E-01  0.768909794525E-01  0.809570379912E-01  0.852072711471E-01  0.896470446823E-01
  0.942815750007E-01  0.991158879371E-01  0.104154773646E+00  0.109402737399E+00  0.114863946099E+00
  0.120542170349E+00  0.126440721892E+00  0.132562386300E+00  0.138909350779E+00  0.145483126993E+00
  0.152284468846E+00  0.159313285199E+00  0.166568547528E+00  0.174048192601E+00  0.181749020292E+00
  0.189666586714E+00  0.197795092956E+00  0.206127269740E+00  0.214654258466E+00  0.223365489168E+00
  0.232248556057E+00  0.241289091417E+00  0.250470638797E+00  0.259774526528E+00  0.269179742779E+00
  0.278662813442E+00  0.288197684263E+00  0.297755608633E+00  0.307305042482E+00  0.316811547589E+00
  0.326237704509E+00  0.335543036239E+00  0.344683943716E+00  0.353613654567E+00  0.362282187114E+00
  0.370636332604E+00  0.378619659835E+00  0.386172547500E+00  0.393232250400E+00  0.399733005973E+00
  0.405606187204E+00  0.410780506866E+00  0.415182276435E+00  0.418735721058E+00  0.421363350541E+00
  0.422986385423E+00  0.423525237437E+00  0.422900044175E+00  0.421031258313E+00  0.417840291731E+00
  0.413250214377E+00  0.407186506951E+00  0.399577865507E+00  0.390357055254E+00  0.379461809907E+00
  0.366835772078E+00  0.352429469235E+00  0.336201318674E+00  0.318118653722E+00  0.298158762151E+00
  0.276309926277E+00  0.252572452801E+00  0.226959678912E+00  0.199498939661E+00  0.170232480216E+00
  0.139218295396E+00  0.106530877874E+00  0.722618558637E-01  0.365205009184E-01 -0.565913386685E-03
 -0.388519206818E-01 -0.781738574293E-01 -0.118350063538E+00 -0.159181307190E+00 -0.200451453493E+00
 -0.241928394087E+00 -0.283365244123E+00 -0.324501786841E+00 -0.365066100036E+00 -0.404776243911E+00
 -0.443341861421E+00 -0.480465597590E+00 -0.515844420532E+00 -0.549171181331E+00 -0.580136901504E+00
 -0.608434084691E+00 -0.633760818616E+00 -0.655825019917E+00 -0.674348277689E+00 -0.689069167703E+00
 -0.699746186507E+00 -0.706160471477E+00 -0.708118371126E+00 -0.705453836848E+00 -0.698030560412E+00
 -0.685743776374E+00 -0.668521668906E+00 -0.646326353891E+00 -0.619154437468E+00 -0.587037176538E+00
 -0.550040282459E+00 -0.508263420379E+00 -0.461839461171E+00 -0.410933545920E+00 -0.355742022598E+00
 -0.296491312486E+00 -0.233436760141E+00 -0.166861515605E+00 -0.970754909220E-01 -0.244144264961E-01
  0.507609053540E-01  0.128065339401E+00  0.207089786736E+00  0.287401529117E+00  0.368544341151E+00
  0.450038449966E+00  0.531380351974E+00  0.612042512476E+00  0.691472989853E+00  0.769095033330E+00
  0.844306722197E+00  0.916480728597E+00  0.984964304316E+00  0.104907961046E+01  0.110812452783E+01
  0.116137410440E+01  0.120808281665E+01  0.124748784053E+01  0.127881355054E+01  0.130127748596E+01
  0.131409804747E+01  0.131650420214E+01  0.130774749099E+01  0.128711662727E+01  0.125395496072E+01
  0.120768104273E+01  0.114781246710E+01  0.107399307724E+01  0.986023508447E+00  0.883894901424E+00
  0.767825426909E+00  0.638299047118E+00  0.496105666477E+00  0.000000000000E+00  0.000000000000E+00
  0.000000000000E+00  0.000000000000E+00  0.000000000000E+00  0.000000000000E+00  0.000000000000E+00
  0.000000000000E+00  0.000000000000E+00  0.000000000000E+00  0.000000000000E+00  0.000000000000E+00
  0.000000000000E+00  0.000000000000E+00  0.000000000000E+00  0.000000000000E+00  0.000000000000E+00
  0.000000000000E+00  0.000000000000E+00  0.000000000000E+00  0.000000000000E+00  0.000000000000E+00
  0.000000000000E+00  0.000000000000E+00
 End of Dataset
  PAW_PBE Se 06Sep2000                   
   6.00000000000000     
 parameters from PSCTR are:
   SHA256 =  eabb916e6b4c819dc065ce039373bc328651da483898f08fb9e49c498452bf12 Se/POTCAR
   COPYR  = (c) Copyright 06Sep2000 Georg Kresse
   COPYR  = This file is part of the software VASP. Any use, copying, and all other rights are regulated by the VASP license agreement.
   COPYR  = If you do not have a valid VASP license, you may not use, copy or distribute this file.
   VRHFIN =Se: s2p4
   LEXCH  = PE
   EATOM  =   257.1286 eV,   18.8984 Ry

   TITEL  = PAW_PBE Se 06Sep2000
   LULTRA =        F    use ultrasoft PP ?
   IUNSCR =        1    unscreen: 0-lin 1-nonlin 2-no
   RPACOR =    1.900    partial core radius
   POMASS =   78.960; ZVAL   =    6.000    mass and valenz
   RCORE  =    2.100    outmost cutoff radius
   RWIGS  =    2.200; RWIGS  =    1.164    wigner-seitz radius (au A)
   ENMAX  =  211.555; ENMIN  =  158.666 eV
   ICORE  =        3    local potential
   LCOR   =        T    correct aug charges
   LPAW   =        T    paw PP
   EAUG   =  446.842
   DEXC   =    0.000
   RMAX   =    2.147    core radius for proj-oper
   RAUG   =    1.300    factor for augmentation sphere
   RDEP   =    2.177    radius for radial grids
   RDEPT  =    1.928    core radius for aug-charge
 
   Atomic configuration
   10 entries
     n  l   j            E        occ.
     1  0  0.50    -12503.4787   2.0000
     2  0  0.50     -1606.9547   2.0000
     2  1  1.50     -1413.3140   6.0000
     3  0  0.50      -213.4885   2.0000
     3  1  1.50      -152.9538   6.0000
     3  2  2.50       -53.1221  10.0000
     4  0  0.50       -17.2865   2.0000
     4  1  0.50        -6.5110   4.0000
     4  2  2.50        -6.8029   0.0000
     4  3  2.50        -6.8029   0.0000
   Description
     l       E           TYP  RCUT    TYP  RCUT
     0    -17.2865377     23  2.100
     0    -15.3094411     23  2.100
     1     -6.5110275     23  2.100
     1     -0.0695192     23  2.100
     2     -6.8029130     23  2.100
     3     -1.3605826      7  2.100
   Error from kinetic energy argument (eV)
   NDATA  =      100
   STEP   =   20.000   1.050
  55.0      51.6      49.9      46.6      44.9      41.8      38.8      37.3
  34.5      31.8      30.5      28.1      25.8      23.6      21.6      19.7
  17.9      16.3      14.8      12.8      11.5      10.4      8.93      8.03
  7.22      6.14      5.21      4.66      3.93      3.31      2.78      2.33
  1.95      1.63      1.35      1.12     0.868     0.714     0.548     0.447
 0.339     0.255     0.190     0.140     0.102     0.739E-01 0.528E-01 0.343E-01
 0.240E-01 0.154E-01 0.101E-01 0.752E-02 0.562E-02 0.467E-02 0.420E-02 0.406E-02
 0.396E-02 0.378E-02 0.349E-02 0.309E-02 0.263E-02 0.217E-02 0.174E-02 0.133E-02
 0.108E-02 0.887E-03 0.783E-03 0.733E-03 0.700E-03 0.665E-03 0.605E-03 0.525E-03
 0.438E-03 0.358E-03 0.291E-03 0.255E-03 0.233E-03 0.221E-03 0.206E-03 0.186E-03
 0.157E-03 0.130E-03 0.110E-03 0.968E-04 0.904E-04 0.845E-04 0.758E-04 0.640E-04
 0.533E-04 0.464E-04 0.427E-04 0.400E-04 0.353E-04 0.300E-04 0.253E-04 0.228E-04
 0.212E-04 0.191E-04 0.161E-04 0.138E-04
END of PSCTR-controll parameters
 local part
   88.8171214632094     
  0.58119705E+02  0.58113162E+02  0.58106765E+02  0.58096097E+02  0.58081142E+02
  0.58061880E+02  0.58038272E+02  0.58010267E+02  0.57977791E+02  0.57940750E+02
  0.57899024E+02  0.57852470E+02  0.57800922E+02  0.57744189E+02  0.57682064E+02
  0.57614320E+02  0.57540718E+02  0.57461007E+02  0.57374922E+02  0.57282194E+02
  0.57182543E+02  0.57075679E+02  0.56961308E+02  0.56839123E+02  0.56708810E+02
  0.56570046E+02  0.56422501E+02  0.56265835E+02  0.56099705E+02  0.55923761E+02
  0.55737654E+02  0.55541030E+02  0.55333538E+02  0.55114830E+02  0.54884561E+02
  0.54642391E+02  0.54387988E+02  0.54121025E+02  0.53841188E+02  0.53548173E+02
  0.53241688E+02  0.52921457E+02  0.52587219E+02  0.52238734E+02  0.51875782E+02
  0.51498165E+02  0.51105711E+02  0.50698274E+02  0.50275735E+02  0.49838006E+02
  0.49385028E+02  0.48916775E+02  0.48433256E+02  0.47934512E+02  0.47420624E+02
  0.46891707E+02  0.46347916E+02  0.45789445E+02  0.45216530E+02  0.44629444E+02
  0.44028506E+02  0.43414072E+02  0.42786542E+02  0.42146356E+02  0.41493996E+02
  0.40829980E+02  0.40154871E+02  0.39469267E+02  0.38773804E+02  0.38069154E+02
  0.37356026E+02  0.36635159E+02  0.35907327E+02  0.35173332E+02  0.34434001E+02
  0.33690188E+02  0.32942771E+02  0.32192643E+02  0.31440717E+02  0.30687919E+02
  0.29935185E+02  0.29183461E+02  0.28433695E+02  0.27686839E+02  0.26943840E+02
  0.26205644E+02  0.25473186E+02  0.24747389E+02  0.24029161E+02  0.23319394E+02
  0.22618954E+02  0.21928685E+02  0.21249403E+02  0.20581892E+02  0.19926902E+02
  0.19285148E+02  0.18657305E+02  0.18044007E+02  0.17445844E+02  0.16863363E+02
  0.16297059E+02  0.15747382E+02  0.15214729E+02  0.14699447E+02  0.14201828E+02
  0.13722114E+02  0.13260491E+02  0.12817090E+02  0.12391992E+02  0.11985219E+02
  0.11596745E+02  0.11226488E+02  0.10874317E+02  0.10540050E+02  0.10223456E+02
  0.99242571E+01  0.96421302E+01  0.93767091E+01  0.91275864E+01  0.88943164E+01
  0.86764173E+01  0.84733742E+01  0.82846418E+01  0.81096471E+01  0.79477931E+01
  0.77984609E+01  0.76610139E+01  0.75347999E+01  0.74191551E+01  0.73134070E+01
  0.72168775E+01  0.71288862E+01  0.70487535E+01  0.69758037E+01  0.69093679E+01
  0.68487869E+01  0.67934143E+01  0.67426184E+01  0.66957853E+01  0.66523212E+01
  0.66116542E+01  0.65732366E+01  0.65365465E+01  0.65010899E+01  0.64664015E+01
  0.64320466E+01  0.63976220E+01  0.63627565E+01  0.63271122E+01  0.62903844E+01
  0.62523022E+01  0.62126284E+01  0.61711592E+01  0.61277242E+01  0.60821855E+01
  0.60344375E+01  0.59844052E+01  0.59320443E+01  0.58773390E+01  0.58203013E+01
  0.57609697E+01  0.56994071E+01  0.56356995E+01  0.55699542E+01  0.55022982E+01
  0.54328758E+01  0.53618470E+01  0.52893857E+01  0.52156772E+01  0.51409166E+01
  0.50653069E+01  0.49890568E+01  0.49123787E+01  0.48354873E+01  0.47585971E+01
  0.46819214E+01  0.46056697E+01  0.45300470E+01  0.44552516E+01  0.43814740E+01
  0.43088954E+01  0.42376867E+01  0.41680074E+01  0.41000045E+01  0.40338119E+01
  0.39695497E+01  0.39073233E+01  0.38472236E+01  0.37893260E+01  0.37336908E+01
  0.36803628E+01  0.36293716E+01  0.35807314E+01  0.35344417E+01  0.34904876E+01
  0.34488404E+01  0.34094577E+01  0.33722850E+01  0.33372555E+01  0.33042920E+01
  0.32733067E+01  0.32442031E+01  0.32168763E+01  0.31912146E+01  0.31671000E+01
  0.31444099E+01  0.31230174E+01  0.31027934E+01  0.30836066E+01  0.30653254E+01
  0.30478186E+01  0.30309565E+01  0.30146117E+01  0.29986601E+01  0.29829821E+01
  0.29674628E+01  0.29519932E+01  0.29364707E+01  0.29207995E+01  0.29048916E+01
  0.28886669E+01  0.28720537E+01  0.28549888E+01  0.28374183E+01  0.28192969E+01
  0.28005887E+01  0.27812668E+01  0.27613133E+01  0.27407192E+01  0.27194840E+01
  0.26976154E+01  0.26751293E+01  0.26520489E+01  0.26284046E+01  0.26042332E+01
  0.25795776E+01  0.25544862E+01  0.25290121E+01  0.25032127E+01  0.24771487E+01
  0.24508839E+01  0.24244842E+01  0.23980169E+01  0.23715503E+01  0.23451527E+01
  0.23188919E+01  0.22928348E+01  0.22670465E+01  0.22415899E+01  0.22165251E+01
  0.21919091E+01  0.21677949E+01  0.21442319E+01  0.21212647E+01  0.20989331E+01
  0.20772721E+01  0.20563114E+01  0.20360752E+01  0.20165823E+01  0.19978460E+01
  0.19798740E+01  0.19626684E+01  0.19462261E+01  0.19305387E+01  0.19155927E+01
  0.19013699E+01  0.18878472E+01  0.18749976E+01  0.18627899E+01  0.18511893E+01
  0.18401578E+01  0.18296546E+01  0.18196365E+01  0.18100582E+01  0.18008730E+01
  0.17920331E+01  0.17834898E+01  0.17751945E+01  0.17670987E+01  0.17591544E+01
  0.17513147E+01  0.17435341E+01  0.17357689E+01  0.17279773E+01  0.17201201E+01
  0.17121608E+01  0.17040656E+01  0.16958042E+01  0.16873495E+01  0.16786779E+01
  0.16697696E+01  0.16606083E+01  0.16511817E+01  0.16414811E+01  0.16315018E+01
  0.16212424E+01  0.16107055E+01  0.15998970E+01  0.15888263E+01  0.15775060E+01
  0.15659514E+01  0.15541810E+01  0.15422156E+01  0.15300783E+01  0.15177944E+01
  0.15053906E+01  0.14928954E+01  0.14803380E+01  0.14677487E+01  0.14551582E+01
  0.14425976E+01  0.14300975E+01  0.14176885E+01  0.14054003E+01  0.13932618E+01
  0.13813006E+01  0.13695431E+01  0.13580137E+01  0.13467353E+01  0.13357283E+01
  0.13250114E+01  0.13146006E+01  0.13045095E+01  0.12947493E+01  0.12853285E+01
  0.12762529E+01  0.12675259E+01  0.12591480E+01  0.12511172E+01  0.12434291E+01
  0.12360767E+01  0.12290507E+01  0.12223397E+01  0.12159299E+01  0.12098059E+01
  0.12039504E+01  0.11983444E+01  0.11929679E+01  0.11877995E+01  0.11828168E+01
  0.11779968E+01  0.11733160E+01  0.11687506E+01  0.11642767E+01  0.11598706E+01
  0.11555090E+01  0.11511690E+01  0.11468286E+01  0.11424668E+01  0.11380636E+01
  0.11336002E+01  0.11290595E+01  0.11244257E+01  0.11196849E+01  0.11148248E+01
  0.11098349E+01  0.11047068E+01  0.10994340E+01  0.10940117E+01  0.10884374E+01
  0.10827103E+01  0.10768316E+01  0.10708044E+01  0.10646335E+01  0.10583256E+01
  0.10518889E+01  0.10453329E+01  0.10386690E+01  0.10319094E+01  0.10250676E+01
  0.10181582E+01  0.10111962E+01  0.10041976E+01  0.99717872E+00  0.99015629E+00
  0.98314709E+00  0.97616794E+00  0.96923545E+00  0.96236595E+00  0.95557523E+00
  0.94887851E+00  0.94229020E+00  0.93582384E+00  0.92949195E+00  0.92330592E+00
  0.91727595E+00  0.91141093E+00  0.90571841E+00  0.90020453E+00  0.89487398E+00
  0.88973002E+00  0.88477440E+00  0.88000741E+00  0.87542791E+00  0.87103331E+00
  0.86681964E+00  0.86278162E+00  0.85891268E+00  0.85520509E+00  0.85165003E+00
  0.84823767E+00  0.84495731E+00  0.84179746E+00  0.83874599E+00  0.83579025E+00
  0.83291716E+00  0.83011338E+00  0.82736538E+00  0.82465964E+00  0.82198271E+00
  0.81932134E+00  0.81666265E+00  0.81399418E+00  0.81130404E+00  0.80858100E+00
  0.80581459E+00  0.80299518E+00  0.80011406E+00  0.79716351E+00  0.79413683E+00
  0.79102841E+00  0.78783375E+00  0.78454950E+00  0.78117343E+00  0.77770447E+00
  0.77414270E+00  0.77048931E+00  0.76674659E+00  0.76291789E+00  0.75900755E+00
  0.75502087E+00  0.75096403E+00  0.74684401E+00  0.74266853E+00  0.73844591E+00
  0.73418504E+00  0.72989526E+00  0.72558626E+00  0.72126797E+00  0.71695051E+00
  0.71264402E+00  0.70835864E+00  0.70410436E+00  0.69989092E+00  0.69572777E+00
  0.69162392E+00  0.68758791E+00  0.68362769E+00  0.67975057E+00  0.67596316E+00
  0.67227132E+00  0.66868010E+00  0.66519372E+00  0.66181552E+00  0.65854795E+00
  0.65539258E+00  0.65235006E+00  0.64942015E+00  0.64660172E+00  0.64389275E+00
  0.64129041E+00  0.63879104E+00  0.63639024E+00  0.63408290E+00  0.63186325E+00
  0.62972495E+00  0.62766113E+00  0.62566448E+00  0.62372732E+00  0.62184169E+00
  0.61999938E+00  0.61819207E+00  0.61641136E+00  0.61464889E+00  0.61289637E+00
  0.61114569E+00  0.60938900E+00  0.60761875E+00  0.60582779E+00  0.60400941E+00
  0.60215741E+00  0.60026616E+00  0.59833060E+00  0.59634634E+00  0.59430964E+00
  0.59221747E+00  0.59006751E+00  0.58785813E+00  0.58558849E+00  0.58325841E+00
  0.58086849E+00  0.57841998E+00  0.57591487E+00  0.57335575E+00  0.57074587E+00
  0.56808903E+00  0.56538959E+00  0.56265238E+00  0.55988264E+00  0.55708600E+00
  0.55426840E+00  0.55143602E+00  0.54859522E+00  0.54575251E+00  0.54291445E+00
  0.54008757E+00  0.53727838E+00  0.53449322E+00  0.53173827E+00  0.52901944E+00
  0.52634235E+00  0.52371226E+00  0.52113402E+00  0.51861203E+00  0.51615023E+00
  0.51375202E+00  0.51142028E+00  0.50915733E+00  0.50696489E+00  0.50484414E+00
  0.50279562E+00  0.50081931E+00  0.49891460E+00  0.49708030E+00  0.49531467E+00
  0.49361543E+00  0.49197978E+00  0.49040448E+00  0.48888582E+00  0.48741972E+00
  0.48600173E+00  0.48462711E+00  0.48329086E+00  0.48198778E+00  0.48071249E+00
  0.47945953E+00  0.47822339E+00  0.47699855E+00  0.47577953E+00  0.47456097E+00
  0.47333766E+00  0.47210460E+00  0.47085703E+00  0.46959048E+00  0.46830082E+00
  0.46698427E+00  0.46563747E+00  0.46425745E+00  0.46284172E+00  0.46138822E+00
  0.45989537E+00  0.45836209E+00  0.45678777E+00  0.45517229E+00  0.45351602E+00
  0.45181980E+00  0.45008494E+00  0.44831317E+00  0.44650667E+00  0.44466799E+00
  0.44280006E+00  0.44090613E+00  0.43898972E+00  0.43705465E+00  0.43510491E+00
  0.43314468E+00  0.43117827E+00  0.42921009E+00  0.42724457E+00  0.42528617E+00
  0.42333928E+00  0.42140822E+00  0.41949720E+00  0.41761023E+00  0.41575113E+00
  0.41392350E+00  0.41213063E+00  0.41037553E+00  0.40866088E+00  0.40698900E+00
  0.40536186E+00  0.40378103E+00  0.40224771E+00  0.40076267E+00  0.39932629E+00
  0.39793857E+00  0.39659906E+00  0.39530695E+00  0.39406105E+00  0.39285976E+00
  0.39170119E+00  0.39058307E+00  0.38950287E+00  0.38845777E+00  0.38744471E+00
  0.38646042E+00  0.38550145E+00  0.38456422E+00  0.38364504E+00  0.38274014E+00
  0.38184572E+00  0.38095798E+00  0.38007314E+00  0.37918754E+00  0.37829756E+00
  0.37739979E+00  0.37649094E+00  0.37556796E+00  0.37462802E+00  0.37366852E+00
  0.37268719E+00  0.37168200E+00  0.37065127E+00  0.36959361E+00  0.36850799E+00
  0.36739369E+00  0.36625035E+00  0.36507794E+00  0.36387678E+00  0.36264749E+00
  0.36139106E+00  0.36010875E+00  0.35880213E+00  0.35747305E+00  0.35612358E+00
  0.35475606E+00  0.35337299E+00  0.35197709E+00  0.35057119E+00  0.34915825E+00
  0.34774131E+00  0.34632349E+00  0.34490792E+00  0.34349774E+00  0.34209604E+00
  0.34070585E+00  0.33933013E+00  0.33797169E+00  0.33663321E+00  0.33531718E+00
  0.33402590E+00  0.33276146E+00  0.33152570E+00  0.33032022E+00  0.32914636E+00
  0.32800517E+00  0.32689744E+00  0.32582368E+00  0.32478408E+00  0.32377857E+00
  0.32280679E+00  0.32186809E+00  0.32096156E+00  0.32008602E+00  0.31924005E+00
  0.31842200E+00  0.31763000E+00  0.31686201E+00  0.31611580E+00  0.31538901E+00
  0.31467915E+00  0.31398363E+00  0.31329982E+00  0.31262500E+00  0.31195646E+00
  0.31129148E+00  0.31062737E+00  0.30996153E+00  0.30929139E+00  0.30861454E+00
  0.30792867E+00  0.30723162E+00  0.30652143E+00  0.30579629E+00  0.30505462E+00
  0.30429505E+00  0.30351642E+00  0.30271784E+00  0.30189862E+00  0.30105833E+00
  0.30019680E+00  0.29931409E+00  0.29841050E+00  0.29748659E+00  0.29654312E+00
  0.29558111E+00  0.29460176E+00  0.29360646E+00  0.29259681E+00  0.29157455E+00
  0.29054155E+00  0.28949981E+00  0.28845144E+00  0.28739863E+00  0.28634361E+00
  0.28528865E+00  0.28423605E+00  0.28318809E+00  0.28214701E+00  0.28111501E+00
  0.28009422E+00  0.27908666E+00  0.27809423E+00  0.27711872E+00  0.27616175E+00
  0.27522478E+00  0.27430911E+00  0.27341582E+00  0.27254582E+00  0.27169982E+00
  0.27087830E+00  0.27008156E+00  0.26930965E+00  0.26856245E+00  0.26783960E+00
  0.26714055E+00  0.26646455E+00  0.26581065E+00  0.26517775E+00  0.26456456E+00
  0.26396964E+00  0.26339143E+00  0.26282825E+00  0.26227831E+00  0.26173974E+00
  0.26121060E+00  0.26068894E+00  0.26017273E+00  0.25965996E+00  0.25914865E+00
  0.25863681E+00  0.25812254E+00  0.25760397E+00  0.25707936E+00  0.25654704E+00
  0.25600547E+00  0.25545325E+00  0.25488911E+00  0.25431195E+00  0.25372083E+00
  0.25311498E+00  0.25249381E+00  0.25185690E+00  0.25120403E+00  0.25053514E+00
  0.24985038E+00  0.24915006E+00  0.24843469E+00  0.24770493E+00  0.24696160E+00
  0.24620569E+00  0.24543831E+00  0.24466072E+00  0.24387428E+00  0.24308044E+00
  0.24228077E+00  0.24147686E+00  0.24067038E+00  0.23986304E+00  0.23905656E+00
  0.23825265E+00  0.23745303E+00  0.23665937E+00  0.23587331E+00  0.23509641E+00
  0.23433015E+00  0.23357593E+00  0.23283503E+00  0.23210862E+00  0.23139774E+00
  0.23070329E+00  0.23002601E+00  0.22936653E+00  0.22872527E+00  0.22810254E+00
  0.22749845E+00  0.22691299E+00  0.22634596E+00  0.22579701E+00  0.22526564E+00
  0.22475120E+00  0.22425290E+00  0.22376982E+00  0.22330094E+00  0.22284509E+00
  0.22240103E+00  0.22196744E+00  0.22154292E+00  0.22112602E+00  0.22071524E+00
  0.22030906E+00  0.21990595E+00  0.21950438E+00  0.21910284E+00  0.21869984E+00
  0.21829393E+00  0.21788376E+00  0.21746801E+00  0.21704546E+00  0.21661500E+00
  0.21617561E+00  0.21572639E+00  0.21526658E+00  0.21479552E+00  0.21431272E+00
  0.21381779E+00  0.21331050E+00  0.21279077E+00  0.21225865E+00  0.21171433E+00
  0.21115813E+00  0.21059053E+00  0.21001211E+00  0.20942358E+00  0.20882578E+00
  0.20821963E+00  0.20760614E+00  0.20698643E+00  0.20636167E+00  0.20573309E+00
  0.20510197E+00  0.20446961E+00  0.20383735E+00  0.20320653E+00  0.20257847E+00
  0.20195449E+00  0.20133587E+00  0.20072385E+00  0.20011961E+00  0.19952426E+00
  0.19893883E+00  0.19836428E+00  0.19780144E+00  0.19725106E+00  0.19671377E+00
  0.19619008E+00  0.19568039E+00  0.19518497E+00  0.19470397E+00  0.19423741E+00
  0.19378518E+00  0.19334706E+00  0.19292270E+00  0.19251164E+00  0.19211329E+00
  0.19172697E+00  0.19135191E+00  0.19098723E+00  0.19063199E+00  0.19028516E+00
  0.18994567E+00  0.18961239E+00  0.18928417E+00  0.18895980E+00  0.18863810E+00
  0.18831785E+00  0.18799786E+00  0.18767695E+00  0.18735398E+00  0.18702786E+00
  0.18669752E+00  0.18636199E+00  0.18602036E+00  0.18567181E+00  0.18531558E+00
  0.18495104E+00  0.18457766E+00  0.18419498E+00  0.18380268E+00  0.18340055E+00
  0.18298848E+00  0.18256646E+00  0.18213463E+00  0.18169320E+00  0.18124252E+00
  0.18078301E+00  0.18031521E+00  0.17983976E+00  0.17935736E+00  0.17886881E+00
  0.17837496E+00  0.17787673E+00  0.17737509E+00  0.17687104E+00  0.17636563E+00
  0.17585991E+00  0.17535495E+00  0.17485181E+00  0.17435154E+00  0.17385518E+00
  0.17336373E+00  0.17287814E+00  0.17239933E+00  0.17192814E+00  0.17146536E+00
  0.17101168E+00  0.17056772E+00  0.17013403E+00  0.16971104E+00  0.16929910E+00
  0.16889846E+00  0.16850927E+00  0.16813157E+00  0.16776532E+00  0.16741036E+00
  0.16706645E+00  0.16673323E+00  0.16641028E+00  0.16609707E+00  0.16579300E+00
  0.16549738E+00  0.16520948E+00  0.16492849E+00  0.16465355E+00  0.16438378E+00
  0.16411823E+00  0.16385596E+00  0.16359600E+00  0.16333739E+00  0.16307914E+00
  0.16282031E+00  0.16255997E+00  0.16229721E+00  0.16203117E+00  0.16176105E+00
  0.16148609E+00  0.16120559E+00  0.16091895E+00  0.16062561E+00  0.16032511E+00
  0.16001707E+00  0.15970120E+00  0.15937730E+00  0.15904526E+00  0.15870505E+00
  0.15835674E+00  0.15800050E+00  0.15763657E+00  0.15726527E+00  0.15688703E+00
  0.15650234E+00  0.15611175E+00  0.15571589E+00  0.15531545E+00  0.15491117E+00
  0.15450382E+00  0.15409421E+00  0.15368319E+00  0.15327161E+00  0.15286036E+00
  0.15245029E+00  0.15204228E+00  0.15163717E+00  0.15123579E+00  0.15083894E+00
  0.15044737E+00  0.15006179E+00  0.14968286E+00  0.14931118E+00  0.14894728E+00
  0.14859161E+00  0.14824456E+00  0.14790644E+00  0.14757748E+00  0.14725782E+00
  0.14694753E+00  0.14664659E+00  0.14635491E+00  0.14607229E+00  0.14579848E+00
  0.14553315E+00  0.14527588E+00  0.14502619E+00  0.14478355E+00  0.14454737E+00
  0.14431698E+00  0.14409170E+00  0.14387079E+00  0.14365351E+00  0.14343907E+00
  0.14322668E+00  0.14301552E+00  0.14280481E+00  0.14259375E+00  0.14238157E+00
  0.14216751E+00  0.14195086E+00  0.14173092E+00  0.14150706E+00  0.14127870E+00
  0.14104530E+00  0.14080640E+00  0.14056159E+00  0.14031054E+00  0.14005298E+00
  0.13978872E+00  0.13951765E+00  0.13923974E+00  0.13895501E+00  0.13866358E+00
 gradient corrections used for XC
           5
 core charge-density (partial)
  0.13714802E+01  0.13708420E+01  0.13689293E+01  0.13657471E+01  0.13613042E+01
  0.13556125E+01  0.13486875E+01  0.13405478E+01  0.13312151E+01  0.13207145E+01
  0.13090737E+01  0.12963235E+01  0.12824973E+01  0.12676311E+01  0.12517632E+01
  0.12349342E+01  0.12171868E+01  0.11985655E+01  0.11791164E+01  0.11588873E+01
  0.11379271E+01  0.11162859E+01  0.10940147E+01  0.10711651E+01  0.10477893E+01
  0.10239398E+01  0.99966929E+00  0.97503020E+00  0.95007488E+00  0.92485521E+00
  0.89942250E+00  0.87382731E+00  0.84811927E+00  0.82234701E+00  0.79655797E+00
  0.77079826E+00  0.74511261E+00  0.71954421E+00  0.69413462E+00  0.66892370E+00
  0.64394953E+00  0.61924835E+00  0.59485447E+00  0.57080028E+00  0.54711617E+00
  0.52383051E+00  0.50096966E+00  0.47855791E+00  0.45661754E+00  0.43516877E+00
  0.41422982E+00  0.39381691E+00  0.37394428E+00  0.35462427E+00  0.33586729E+00
  0.31768193E+00  0.30007499E+00  0.28305151E+00  0.26661489E+00  0.25076688E+00
  0.23550771E+00  0.22083611E+00  0.20674944E+00  0.19324369E+00  0.18031361E+00
  0.16795277E+00  0.15615363E+00  0.14490762E+00  0.13420522E+00  0.12403605E+00
  0.11438890E+00  0.10525184E+00  0.96612320E-01  0.88457171E-01  0.80772736E-01
  0.73544911E-01  0.66759221E-01  0.60400878E-01  0.54454850E-01  0.48905916E-01
  0.43738727E-01  0.38937857E-01  0.34487857E-01  0.30373305E-01  0.26578850E-01
  0.23089260E-01  0.19889458E-01  0.16964564E-01  0.14299925E-01  0.11881156E-01
  0.96941599E-02  0.77251625E-02  0.59607318E-02  0.43878017E-02  0.29936906E-02
  0.17661179E-02  0.69321854E-03 -0.23644524E-03 -0.10338745E-02 -0.17096258E-02
 -0.22738060E-02 -0.27360686E-02 -0.31056124E-02 -0.33911812E-02 -0.36010660E-02
 -0.37431078E-02 -0.38247032E-02 -0.38528096E-02 -0.38339532E-02 -0.37742371E-02
 -0.36793510E-02 -0.35545815E-02 -0.34048238E-02 -0.32345929E-02 -0.30480373E-02
 -0.28489512E-02 -0.26407890E-02 -0.24266790E-02 -0.22094379E-02 -0.19915853E-02
 -0.17753587E-02 -0.15627281E-02 -0.13554111E-02 -0.11548877E-02 -0.96241490E-03
 -0.77904135E-03 -0.60562182E-03 -0.44283123E-03 -0.29117848E-03 -0.15101996E-03
 -0.22572647E-04  0.94073164E-04  0.19894159E-03  0.29215933E-03  0.37394431E-03
  0.44459483E-03  0.50447920E-03  0.55402594E-03  0.59371446E-03  0.62406629E-03
  0.64563685E-03  0.65900776E-03  0.66477966E-03  0.66356563E-03  0.65598499E-03
  0.64265779E-03  0.62419966E-03  0.60121723E-03  0.57430400E-03  0.54403668E-03
  0.51097196E-03  0.47564374E-03  0.43856072E-03  0.40020446E-03  0.36102772E-03
  0.32145321E-03  0.28187266E-03  0.24264617E-03  0.20410192E-03  0.16653605E-03
  0.13021288E-03  0.95365254E-04  0.62195213E-04  0.30874743E-04  0.15467389E-05
 -0.25673891E-04 -0.50699001E-04 -0.73465874E-04 -0.93935799E-04 -0.11209257E-03
 -0.12794092E-03 -0.14150495E-03 -0.15282647E-03 -0.16196339E-03 -0.16898804E-03
 -0.17398558E-03 -0.17705235E-03 -0.17829430E-03 -0.17782547E-03 -0.17576648E-03
 -0.17224307E-03 -0.16738478E-03 -0.16132357E-03 -0.15419264E-03 -0.14612526E-03
 -0.13725366E-03 -0.12770804E-03 -0.11761569E-03 -0.10710010E-03 -0.96280264E-04
 -0.85269973E-04 -0.74177269E-04 -0.63103931E-04 -0.52145064E-04 -0.41388763E-04
 -0.30915845E-04 -0.20799669E-04 -0.11106008E-04 -0.18930047E-05  0.67888258E-05
  0.14896524E-04  0.22394567E-04  0.29254693E-04  0.35455687E-04  0.40983121E-04
  0.45829056E-04  0.49991719E-04  0.53475145E-04  0.56288793E-04  0.58447157E-04
  0.59969342E-04  0.60878647E-04  0.61202124E-04  0.60970148E-04  0.60215979E-04
  0.58975323E-04  0.57285911E-04  0.55187074E-04  0.52719340E-04  0.49924036E-04
  0.46842913E-04  0.43517786E-04  0.39990193E-04  0.36301076E-04  0.32490486E-04
  0.28597308E-04  0.24659010E-04  0.20711423E-04  0.16788539E-04  0.12922335E-04
  0.91426252E-05  0.54769379E-05  0.19504127E-05 -0.14142737E-05 -0.45969611E-05
 -0.75800356E-05 -0.10348439E-04 -0.12889658E-04 -0.15193691E-04 -0.17253001E-04
 -0.19062453E-04 -0.20619225E-04 -0.21922724E-04 -0.22974467E-04 -0.23777971E-04
 -0.24338623E-04 -0.24663541E-04 -0.24761432E-04 -0.24642444E-04 -0.24318016E-04
 -0.23800717E-04 -0.23104096E-04 -0.22242522E-04 -0.21231031E-04 -0.20085172E-04
 -0.18820857E-04 -0.17454218E-04 -0.16001466E-04 -0.14478756E-04 -0.12902064E-04
 -0.11287060E-04 -0.96490045E-05 -0.80026409E-05 -0.63621015E-05 -0.47408234E-05
 -0.31514723E-05 -0.16058761E-05 -0.11496882E-06  0.13112567E-05  0.26637863E-05
  0.39346123E-05  0.51167528E-05  0.62042611E-05  0.71922280E-05  0.80767741E-05
  0.88550361E-05  0.95251442E-05  0.10086194E-04  0.10538211E-04  0.10882110E-04
  0.11119649E-04  0.11253379E-04  0.11286589E-04  0.11223248E-04  0.11067944E-04
  0.10825821E-04  0.10502514E-04  0.10104083E-04  0.96369472E-05  0.91078164E-05
  0.85236283E-05  0.78914808E-05  0.72185698E-05  0.65121269E-05  0.57793604E-05
  0.50273982E-05  0.42632345E-05  0.34936786E-05  0.27253087E-05  0.19644278E-05
  0.12170251E-05  0.48874014E-06 -0.21516780E-06 -0.88984700E-06 -0.15308757E-05
 -0.21342802E-05 -0.26965494E-05 -0.32146442E-05 -0.36860033E-05 -0.41085451E-05
 -0.44806656E-05 -0.48012324E-05 -0.50695758E-05 -0.52854761E-05 -0.54491476E-05
 -0.55612210E-05 -0.56227216E-05 -0.56350466E-05 -0.55999395E-05 -0.55194629E-05
 -0.53959702E-05 -0.52320758E-05 -0.50306241E-05 -0.47946581E-05 -0.45273884E-05
 -0.42321601E-05 -0.39124220E-05 -0.35716950E-05 -0.32135407E-05 -0.28415322E-05
 -0.24592246E-05 -0.20701275E-05 -0.16776784E-05 -0.12852179E-05 -0.89596656E-06
 -0.51300339E-06 -0.13924635E-06  0.22256520E-06  0.56988599E-06  0.90037836E-06
  0.12119234E-05  0.15026305E-05  0.17708438E-05  0.20151479E-05  0.22343700E-05
  0.24275814E-05  0.25940960E-05  0.27334675E-05  0.28454848E-05  0.29301651E-05
  0.29877464E-05  0.30186777E-05  0.30236083E-05  0.30033756E-05  0.29589923E-05
  0.28916320E-05  0.28026146E-05  0.26933908E-05  0.25655260E-05  0.24206839E-05
  0.22606100E-05  0.20871151E-05  0.19020583E-05  0.17073305E-05  0.15048389E-05
  0.12964905E-05  0.10841770E-05  0.86976047E-06  0.65505935E-06  0.44183517E-06
  0.23178045E-06  0.26507452E-07 -0.17246218E-06 -0.36370661E-06 -0.54591195E-06
 -0.71787930E-06 -0.87853065E-06 -0.10269136E-05 -0.11622050E-05 -0.12837135E-05
 -0.13908806E-05 -0.14832813E-05 -0.15606229E-05 -0.16227437E-05 -0.16696096E-05
 -0.17013107E-05 -0.17180566E-05 -0.17201713E-05 -0.17080865E-05 -0.16823355E-05
 -0.16435451E-05 -0.15924283E-05 -0.15297756E-05 -0.14564465E-05 -0.13733605E-05
 -0.12814878E-05 -0.11818401E-05 -0.10754614E-05 -0.96341847E-06 -0.84679162E-06
 -0.72666592E-06 -0.60412218E-06 -0.48022851E-06 -0.35603216E-06 -0.23255180E-06
 -0.11077019E-06  0.83725583E-08  0.12398527E-06  0.23523135E-06  0.34133389E-06
  0.44158007E-06  0.53532506E-06  0.62199511E-06  0.70109008E-06  0.77218534E-06
  0.83493291E-06  0.88906208E-06  0.93437931E-06  0.97076758E-06  0.99818510E-06
  0.10166635E-05  0.10263056E-05  0.10272822E-05  0.10198294E-05  0.10042442E-05
  0.98088080E-06  0.95014616E-06  0.91249510E-06  0.86842540E-06  0.81847264E-06
  0.76320487E-06  0.70321713E-06  0.63912597E-06  0.57156395E-06  0.50117413E-06
  0.42860463E-06  0.35450335E-06  0.27951275E-06  0.20426495E-06  0.12937689E-06
  0.55445847E-07 -0.16954777E-07 -0.87279419E-07 -0.15501394E-06 -0.21967888E-06
 -0.28083236E-06 -0.33807258E-06 -0.39103998E-06 -0.43941894E-06 -0.48293916E-06
 -0.52137660E-06 -0.55455403E-06 -0.58234122E-06 -0.60465469E-06 -0.62145721E-06
 -0.63275683E-06 -0.63860562E-06 -0.63909813E-06 -0.63436952E-06 -0.62459338E-06
 -0.60997940E-06 -0.59077070E-06 -0.56724105E-06 -0.53969192E-06 -0.50844930E-06
 -0.47386049E-06 -0.43629079E-06 -0.39612012E-06 -0.35373959E-06 -0.30954812E-06
 -0.26394903E-06 -0.21734673E-06 -0.17014347E-06 -0.12273614E-06 -0.75513287E-07
 -0.28852206E-07  0.16883802E-07  0.61347962E-07  0.10421238E-06  0.14517020E-06
  0.18393752E-06  0.22025508E-06  0.25388972E-06  0.28463562E-06  0.31231523E-06
  0.33678000E-06  0.35791088E-06  0.37561848E-06  0.38984314E-06  0.40055459E-06
  0.40775155E-06  0.41146099E-06  0.41173723E-06  0.40866084E-06  0.40233739E-06
  0.39289597E-06  0.38048759E-06  0.36528349E-06  0.34747323E-06  0.32726277E-06
  0.30487242E-06  0.28053476E-06  0.25449246E-06  0.22699613E-06  0.19830211E-06
  0.16867030E-06  0.13836200E-06  0.10763779E-06  0.76755463E-07  0.45968040E-07
  0.15521858E-07 -0.14345238E-07 -0.43405599E-07 -0.71443345E-07 -0.98255817E-07
 -0.12365489E-06 -0.14746813E-06 -0.16953982E-06 -0.18973181E-06 -0.20792419E-06
 -0.22401588E-06 -0.23792497E-06 -0.24958892E-06 -0.25896465E-06 -0.26602844E-06
 -0.27077563E-06 -0.27322027E-06 -0.27339459E-06 -0.27134829E-06 -0.26714777E-06
 -0.26087522E-06 -0.25262762E-06 -0.24251562E-06 -0.23066236E-06 -0.21720218E-06
 -0.20227935E-06 -0.18604663E-06 -0.16866391E-06 -0.15029679E-06 -0.13111506E-06
 -0.11129132E-06 -0.90999519E-07 -0.70413515E-07 -0.49705721E-07 -0.29045747E-07
 -0.85991038E-08  0.11474021E-07  0.31019930E-07  0.49892497E-07  0.67954174E-07
  0.85076898E-07  0.10114291E-06  0.11604547E-06  0.12968946E-06  0.14199193E-06
  0.15288245E-06  0.16230344E-06  0.17021032E-06  0.17657162E-06  0.18136894E-06
  0.18459680E-06  0.18626243E-06  0.18638545E-06  0.18499742E-06  0.18214135E-06
  0.17787112E-06  0.17225082E-06  0.16535401E-06  0.15726296E-06  0.14806777E-06
  0.13786552E-06  0.12675934E-06  0.11485747E-06  0.10227225E-06  0.89119207E-07
  0.75515991E-07  0.61581446E-07  0.47434611E-07  0.33193777E-07  0.18975551E-07
  0.48939664E-08 -0.89403807E-08 -0.22421139E-07 -0.35446966E-07 -0.47922235E-07
 -0.59757678E-07 -0.70870975E-07 -0.81187263E-07 -0.90639588E-07 -0.99169274E-07
 -0.10672623E-06 -0.11326916E-06 -0.11876575E-06 -0.12319271E-06 -0.12653578E-06
 -0.12878969E-06 -0.12995800E-06 -0.13005291E-06 -0.12909497E-06 -0.12711276E-06
 -0.12414250E-06 -0.12022764E-06 -0.11541830E-06 -0.10977080E-06 -0.10334708E-06
 -0.96214059E-07 -0.88443037E-07 -0.80109028E-07 -0.71290087E-07 -0.62066631E-07
 -0.52520748E-07 -0.42735511E-07 -0.32794295E-07 -0.22780104E-07 -0.12774918E-07
 -0.28590583E-08  0.68894227E-08  0.16395320E-07  0.25586823E-07  0.34396019E-07
  0.42759365E-07  0.50618108E-07  0.57918665E-07  0.64612948E-07  0.70658644E-07
  0.76019446E-07  0.80665223E-07  0.84572147E-07  0.87722761E-07  0.90105999E-07
  0.91717153E-07  0.92557791E-07  0.92635623E-07  0.91964328E-07  0.90563330E-07
  0.88457535E-07  0.85677031E-07  0.82256749E-07  0.78236095E-07  0.73658550E-07
  0.68571250E-07  0.63024538E-07  0.57071507E-07  0.50767520E-07  0.44169731E-07
  0.37336592E-07  0.30327365E-07  0.23201631E-07  0.16018812E-07  0.88376985E-08
  0.17159887E-08 -0.52901476E-08 -0.12126492E-07 -0.18741175E-07 -0.25085045E-07
 -0.31112012E-07 -0.36779364E-07 -0.42048040E-07 -0.46882879E-07 -0.51252831E-07
 -0.55131130E-07 -0.58495428E-07 -0.61327899E-07 -0.63615294E-07 -0.65348969E-07
 -0.66524870E-07 -0.67143482E-07 -0.67209747E-07 -0.66732943E-07 -0.65726531E-07
 -0.64207978E-07 -0.62198541E-07 -0.59723035E-07 -0.56809568E-07 -0.53489260E-07
 -0.49795942E-07 -0.45765836E-07 -0.41437228E-07 -0.36850122E-07 -0.32045889E-07
 -0.27066921E-07 -0.21956265E-07 -0.16757273E-07 -0.11513252E-07 -0.62671145E-08
 -0.10610459E-08  0.40638203E-08  0.90677130E-08  0.13912517E-07  0.18562049E-07
  0.22982313E-07  0.27141734E-07  0.31011368E-07  0.34565089E-07  0.37779747E-07
  0.40635306E-07  0.43114945E-07  0.45205143E-07  0.46895725E-07  0.48179891E-07
  0.49054213E-07  0.49518599E-07  0.49576244E-07  0.49233545E-07  0.48499999E-07
  0.47388071E-07  0.45913045E-07  0.44092859E-07  0.41947911E-07  0.39500859E-07
  0.36776400E-07  0.33801041E-07  0.30602855E-07  0.27211230E-07  0.23656617E-07
  0.19970264E-07  0.16183954E-07  0.12329747E-07  0.84397145E-08  0.45456839E-08
  0.67899089E-09 -0.31297646E-08 -0.68509499E-08 -0.10456121E-07 -0.13918228E-07
 -0.17211812E-07 -0.20313178E-07 -0.23200558E-07 -0.25854254E-07 -0.28256756E-07
 -0.30392855E-07 -0.32249719E-07 -0.33816961E-07 -0.35086680E-07 -0.36053487E-07
 -0.36714504E-07 -0.37069348E-07 -0.37120094E-07 -0.36871216E-07 -0.36329519E-07
 -0.35504041E-07 -0.34405945E-07 -0.33048402E-07 -0.31446447E-07 -0.29616833E-07
 -0.27577869E-07 -0.25349246E-07 -0.22951865E-07 -0.20407641E-07 -0.17739321E-07
 -0.14970284E-07 -0.12124346E-07 -0.92255621E-08 -0.62980326E-08 -0.33657069E-08
 -0.45219708E-09  0.24194066E-08  0.52267114E-08  0.79481898E-08  0.10563338E-07
  0.13052825E-07  0.15398624E-07  0.17584144E-07  0.19594331E-07  0.21415771E-07
  0.23036767E-07  0.24447411E-07  0.25639629E-07  0.26607223E-07  0.27345886E-07
  0.27853212E-07  0.28128684E-07  0.28173648E-07  0.27991275E-07  0.27586507E-07
  0.26965991E-07  0.26138000E-07  0.25112338E-07  0.23900247E-07  0.22514287E-07
  0.20968219E-07  0.19276877E-07  0.17456032E-07  0.15522254E-07  0.13492765E-07
  0.11385294E-07  0.92179263E-08  0.70089528E-08  0.47767234E-08  0.25394978E-08
  0.31530158E-09 -0.18782143E-08 -0.40239090E-08 -0.61052806E-08 -0.81065888E-08
 -0.10012969E-07 -0.11810538E-07 -0.13486489E-07 -0.15029181E-07 -0.16428212E-07
 -0.17674482E-07 -0.18760252E-07 -0.19679178E-07 -0.20426349E-07 -0.20998299E-07
 -0.21393015E-07 -0.21609935E-07 -0.21649925E-07 -0.21515257E-07 -0.21209567E-07
 -0.20737805E-07 -0.20106180E-07 -0.19322088E-07 -0.18394040E-07 -0.17331573E-07
 -0.16145161E-07 -0.14846120E-07 -0.13446501E-07 -0.11958986E-07 -0.10396778E-07
 -0.87734859E-08 -0.71030105E-08 -0.53994310E-08 -0.36768879E-08 -0.19494705E-08
 -0.23110451E-09  0.14645567E-08  0.31242371E-08  0.47351386E-08  0.62850368E-08
  0.77623696E-08  0.91563211E-08  0.10456897E-07  0.11654991E-07  0.12742448E-07
  0.13712113E-07  0.14557878E-07  0.15274708E-07  0.15858676E-07  0.16306970E-07
  0.16617906E-07  0.16790923E-07  0.16826570E-07  0.16726489E-07  0.16493384E-07
  0.16130988E-07  0.15644013E-07  0.15038106E-07  0.14319783E-07  0.13496372E-07
  0.12575939E-07  0.11567212E-07  0.10479507E-07  0.93226413E-08  0.81068503E-08
  0.68426986E-08  0.55409915E-08  0.42126860E-08  0.28688004E-08  0.15203256E-08
  0.17813832E-09 -0.11470851E-08 -0.24449505E-08 -0.37054255E-08 -0.49189144E-08
 -0.60763287E-08 -0.71691533E-08 -0.81895059E-08 -0.91301921E-08 -0.99847527E-08
 -0.10747506E-07 -0.11413582E-07 -0.11978950E-07 -0.12440442E-07 -0.12795761E-07
 -0.13043493E-07 -0.13183104E-07 -0.13214931E-07 -0.13140170E-07 -0.12960854E-07
 -0.12679825E-07 -0.12300700E-07 -0.11827835E-07 -0.11266275E-07 -0.10621708E-07
 -0.99004107E-08 -0.91091896E-08 -0.82553198E-08 -0.73464810E-08 -0.63906905E-08
 -0.53962345E-08 -0.43715986E-08 -0.33253975E-08 -0.22663041E-08 -0.12029796E-08
 -0.14400476E-09  0.90218801E-09  0.19273798E-08  0.29236279E-08  0.38833260E-08
  0.47992602E-08  0.56646614E-08  0.64732539E-08  0.72192986E-08  0.78976322E-08
  0.85037007E-08  0.90335877E-08  0.94840376E-08  0.98524729E-08  0.10137006E-07
  0.10336445E-07  0.10450294E-07  0.10478749E-07  0.10422688E-07  0.10283651E-07
  0.10063824E-07  0.97660116E-08  0.93936047E-08  0.89505486E-08  0.84413026E-08
  0.78707985E-08  0.72443948E-08  0.65678288E-08  0.58471655E-08  0.50887449E-08
  0.42991285E-08  0.34850433E-08  0.26533264E-08  0.18108689E-08  0.96455990E-09
  0.12123197E-09 -0.71239309E-09 -0.15297564E-08 -0.23245122E-08 -0.30905762E-08
 -0.38221703E-08 -0.45138656E-08 -0.51606206E-08 -0.57578172E-08 -0.63012917E-08
 -0.67873630E-08 -0.72128551E-08 -0.75751171E-08 -0.78720368E-08 -0.81020515E-08
 -0.82641535E-08 -0.83578908E-08 -0.83833642E-08 -0.83412195E-08 -0.82326354E-08
 -0.80593077E-08 -0.78234289E-08 -0.75276650E-08 -0.71751279E-08 -0.67693454E-08
 -0.63142276E-08 -0.58140309E-08 -0.52733200E-08 -0.46969274E-08 -0.40899115E-08
 -0.34575134E-08 -0.28051130E-08 -0.21381841E-08 -0.14622496E-08 -0.78283661E-09
 -0.10543261E-09  0.56455823E-09  0.12218571E-08  0.18613510E-08  0.24781320E-08
  0.30675335E-08  0.36251648E-08  0.41469427E-08  0.46291205E-08  0.50683137E-08
  0.54615228E-08  0.58061526E-08  0.61000278E-08  0.63414057E-08  0.65289842E-08
  0.66619079E-08  0.67397686E-08  0.67626037E-08  0.67308905E-08  0.66455368E-08
  0.65078689E-08  0.63196157E-08  0.60828900E-08  0.58001673E-08  0.54742617E-08
  0.51082991E-08  0.47056885E-08  0.42700918E-08  0.38053910E-08  0.33156552E-08
  0.28051052E-08  0.22780784E-08  0.17389927E-08  0.11923102E-08  0.64250112E-09
 kinetic energy density (partial)
  0.18384394E+03  0.18376201E+03  0.18351646E+03  0.18310789E+03  0.18253736E+03
  0.18180632E+03  0.18091663E+03  0.17987055E+03  0.17867073E+03  0.17732017E+03
  0.17582227E+03  0.17418076E+03  0.17239971E+03  0.17048349E+03  0.16843679E+03
  0.16626456E+03  0.16397203E+03  0.16156466E+03  0.15904812E+03  0.15642828E+03
  0.15371119E+03  0.15090303E+03  0.14801012E+03  0.14503889E+03  0.14199584E+03
  0.13888752E+03  0.13572054E+03  0.13250150E+03  0.12923699E+03  0.12593359E+03
  0.12259780E+03  0.11923607E+03  0.11585476E+03  0.11246010E+03  0.10905823E+03
  0.10565512E+03  0.10225658E+03  0.98868274E+02  0.95495664E+02  0.92144018E+02
  0.88818401E+02  0.85523660E+02  0.82264415E+02  0.79045059E+02  0.75869741E+02
  0.72742371E+02  0.69666609E+02  0.66645866E+02  0.63683300E+02  0.60781819E+02
  0.57944074E+02  0.55172467E+02  0.52469150E+02  0.49836027E+02  0.47274761E+02
  0.44786772E+02  0.42373251E+02  0.40035156E+02  0.37773227E+02  0.35587985E+02
  0.33479747E+02  0.31448626E+02  0.29494547E+02  0.27617247E+02  0.25816292E+02
  0.24091081E+02  0.22440854E+02  0.20864707E+02  0.19361596E+02  0.17930350E+02
  0.16569678E+02  0.15278178E+02  0.14054352E+02  0.12896608E+02  0.11803272E+02
  0.10772601E+02  0.98027845E+01  0.88919596E+01  0.80382158E+01  0.72396045E+01
  0.64941467E+01  0.57998405E+01  0.51546685E+01  0.45566050E+01  0.40036223E+01
  0.34936974E+01  0.30248177E+01  0.25949869E+01  0.22022301E+01  0.18445989E+01
  0.15201759E+01  0.12270789E+01  0.96346484E+00  0.72753330E+00  0.51752969E+00
  0.33174808E+00  0.16853376E+00  0.26285369E-01 -0.96543199E-01 -0.20144122E+00
 -0.28983988E+00 -0.36311128E+00 -0.42256768E+00 -0.46946112E+00 -0.50498312E+00
 -0.53026475E+00 -0.54637685E+00 -0.55433050E+00 -0.55507766E+00 -0.54951197E+00
 -0.53846979E+00 -0.52273130E+00 -0.50302181E+00 -0.48001318E+00 -0.45432533E+00
 -0.42652788E+00 -0.39714188E+00 -0.36664157E+00 -0.33545629E+00 -0.30397235E+00
 -0.27253499E+00 -0.24145040E+00 -0.21098768E+00 -0.18138092E+00 -0.15283115E+00
 -0.12550841E+00 -0.99553742E-01 -0.75081145E-01 -0.52179559E-01 -0.30914760E-01
 -0.11331243E-01  0.65459559E-02  0.22709481E-01  0.37167941E-01  0.49944245E-01
  0.61074014E-01  0.70604051E-01  0.78590881E-01  0.85099362E-01  0.90201372E-01
  0.93974570E-01  0.96501223E-01  0.97867120E-01  0.98160552E-01  0.97471371E-01
  0.95890122E-01  0.93507242E-01  0.90412344E-01  0.86693555E-01  0.82436935E-01
  0.77725951E-01  0.72641028E-01  0.67259146E-01  0.61653512E-01  0.55893274E-01
  0.50043299E-01  0.44163996E-01  0.38311189E-01  0.32536036E-01  0.26884984E-01
  0.21399770E-01  0.16117454E-01  0.11070486E-01  0.62867983E-02  0.17899317E-02
 -0.24008198E-02 -0.62702413E-02 -0.98070117E-02 -0.13003502E-01 -0.15855564E-01
 -0.18362299E-01 -0.20525835E-01 -0.22351078E-01 -0.23845476E-01 -0.25018775E-01
 -0.25882771E-01 -0.26451068E-01 -0.26738844E-01 -0.26762612E-01 -0.26539993E-01
 -0.26089500E-01 -0.25430319E-01 -0.24582113E-01 -0.23564825E-01 -0.22398501E-01
 -0.21103118E-01 -0.19698427E-01 -0.18203805E-01 -0.16638129E-01 -0.15019647E-01
 -0.13365879E-01 -0.11693516E-01 -0.10018343E-01 -0.83551644E-02 -0.67177511E-02
 -0.51187915E-02 -0.35698578E-02 -0.20813828E-02 -0.66264586E-03  0.67823031E-03
  0.19342740E-02  0.30996505E-02  0.41696393E-02  0.51406052E-02  0.60099618E-02
  0.67761292E-02  0.74384868E-02  0.79973209E-02  0.84537688E-02  0.88097597E-02
  0.90679518E-02  0.92316692E-02  0.93048357E-02  0.92919084E-02  0.91978112E-02
  0.90278683E-02  0.87877379E-02  0.84833477E-02  0.81208318E-02  0.77064696E-02
  0.72466263E-02  0.67476972E-02  0.62160540E-02  0.56579947E-02  0.50796963E-02
  0.44871720E-02  0.38862308E-02  0.32824420E-02  0.26811027E-02  0.20872097E-02
  0.15054350E-02  0.94010517E-03  0.39518459E-03 -0.12573759E-03 -0.61945689E-03
 -0.10831594E-02 -0.15144243E-02 -0.19112232E-02 -0.22719164E-02 -0.25952464E-02
 -0.28803284E-02 -0.31266389E-02 -0.33340012E-02 -0.35025703E-02 -0.36328141E-02
 -0.37254948E-02 -0.37816478E-02 -0.38025600E-02 -0.37897470E-02 -0.37449297E-02
 -0.36700105E-02 -0.35670490E-02 -0.34382380E-02 -0.32858790E-02 -0.31123589E-02
 -0.29201264E-02 -0.27116692E-02 -0.24894926E-02 -0.22560977E-02 -0.20139619E-02
 -0.17655202E-02 -0.15131470E-02 -0.12591401E-02 -0.10057056E-02 -0.75494442E-03
 -0.50884008E-03 -0.26924808E-03 -0.37886755E-04  0.18367035E-03  0.39400067E-03
  0.59183727E-03  0.77607213E-03  0.94575798E-03  0.11001088E-02  0.12384990E-02
  0.13604616E-02  0.14656845E-02  0.15540069E-02  0.16254135E-02  0.16800287E-02
  0.17181091E-02  0.17400362E-02  0.17463076E-02  0.17375283E-02  0.17144012E-02
  0.16777169E-02  0.16283444E-02  0.15672201E-02  0.14953377E-02  0.14137378E-02
  0.13234976E-02  0.12257206E-02  0.11215268E-02  0.10120426E-02  0.89839213E-03
  0.78168773E-03  0.66302170E-03  0.54345832E-03  0.42402638E-03  0.30571238E-03
  0.18945425E-03  0.76135777E-04 -0.33418365E-04 -0.13844687E-03 -0.23825542E-03
 -0.33221962E-03 -0.41978729E-03 -0.50048002E-03 -0.57389417E-03 -0.63970118E-03
 -0.69764729E-03 -0.74755272E-03 -0.78931018E-03 -0.82288303E-03 -0.84830279E-03
 -0.86566634E-03 -0.87513258E-03 -0.87691887E-03 -0.87129700E-03 -0.85858901E-03
 -0.83916266E-03 -0.81342679E-03 -0.78182647E-03 -0.74483811E-03 -0.70296442E-03
 -0.65672944E-03 -0.60667351E-03 -0.55334833E-03 -0.49731212E-03 -0.43912490E-03
 -0.37934390E-03 -0.31851920E-03 -0.25718958E-03 -0.19587858E-03 -0.13509084E-03
 -0.75308738E-04 -0.16989311E-04  0.39438525E-04  0.93576414E-04  0.14505867E-03
  0.19355408E-03  0.23876731E-03  0.28044008E-03  0.31835185E-03  0.35232037E-03
  0.38220174E-03  0.40789027E-03  0.42931799E-03  0.44645390E-03  0.45930294E-03
  0.46790472E-03  0.47233202E-03  0.47268908E-03  0.46910966E-03  0.46175501E-03
  0.45081161E-03  0.43648884E-03  0.41901653E-03  0.39864240E-03  0.37562951E-03
  0.35025363E-03  0.32280059E-03  0.29356364E-03  0.26284090E-03  0.23093274E-03
  0.19813935E-03  0.16475831E-03  0.13108229E-03  0.97396872E-04  0.63978462E-04
  0.31092399E-04 -0.10088348E-05 -0.32087220E-04 -0.61920648E-04 -0.90304190E-04
 -0.11705120E-03 -0.14199420E-03 -0.16498568E-03 -0.18589858E-03 -0.20462668E-03
 -0.22108482E-03 -0.23520892E-03 -0.24695578E-03 -0.25630284E-03 -0.26324769E-03
 -0.26780744E-03 -0.27001801E-03 -0.26993325E-03 -0.26762394E-03 -0.26317673E-03
 -0.25669291E-03 -0.24828720E-03 -0.23808640E-03 -0.22622800E-03 -0.21285873E-03
 -0.19813316E-03 -0.18221217E-03 -0.16526150E-03 -0.14745026E-03 -0.12894947E-03
 -0.10993064E-03 -0.90564378E-04 -0.71019054E-04 -0.51459500E-04 -0.32045804E-04
 -0.12932164E-04  0.57341723E-05  0.23813890E-04  0.41176486E-04  0.57701062E-04
  0.73277011E-04  0.87804605E-04  0.10119548E-03  0.11337302E-03  0.12427261E-03
  0.13384185E-03  0.14204058E-03  0.14884088E-03  0.15422693E-03  0.15819479E-03
  0.16075211E-03  0.16191772E-03  0.16172118E-03  0.16020222E-03  0.15741013E-03
  0.15340316E-03  0.14824770E-03  0.14201759E-03  0.13479331E-03  0.12666115E-03
  0.11771231E-03  0.10804211E-03  0.97749056E-04  0.86933981E-04  0.75699171E-04
  0.64147507E-04  0.52381620E-04  0.40503076E-04  0.28611594E-04  0.16804293E-04
  0.51749876E-05 -0.61864785E-05 -0.17194842E-04 -0.27769981E-04 -0.37837421E-04
 -0.47328775E-04 -0.56182136E-04 -0.64342395E-04 -0.71761500E-04 -0.78398660E-04
 -0.84220474E-04 -0.89201005E-04 -0.93321789E-04 -0.96571789E-04 -0.98947286E-04
 -0.10045172E-03 -0.10109546E-03 -0.10089558E-03 -0.99875482E-04 -0.98064615E-04
 -0.95498031E-04 -0.92215982E-04 -0.88263457E-04 -0.83689700E-04 -0.78547707E-04
 -0.72893704E-04 -0.66786615E-04 -0.60287517E-04 -0.53459100E-04 -0.46365124E-04
 -0.39069877E-04 -0.31637647E-04 -0.24132211E-04 -0.16616333E-04 -0.91512875E-05
 -0.17964058E-05  0.53913502E-05  0.12357786E-04  0.19051838E-04  0.25425908E-04
  0.31436155E-04  0.37042757E-04  0.42210125E-04  0.46907091E-04  0.51107042E-04
  0.54788028E-04  0.57932816E-04  0.60528919E-04  0.62568578E-04  0.64048707E-04
  0.64970806E-04  0.65340838E-04  0.65169073E-04  0.64469899E-04  0.63261613E-04
  0.61566172E-04  0.59408939E-04  0.56818389E-04  0.53825813E-04  0.50464997E-04
  0.46771892E-04  0.42784274E-04  0.38541403E-04  0.34083664E-04  0.29452226E-04
  0.24688688E-04  0.19834739E-04  0.14931819E-04  0.10020794E-04  0.51416450E-05
  0.33316229E-06 -0.43673324E-05 -0.89242528E-05 -0.13303993E-04 -0.17475150E-04
 -0.21408725E-04 -0.25078299E-04 -0.28460189E-04 -0.31533569E-04 -0.34280575E-04
 -0.36686381E-04 -0.38739244E-04 -0.40430533E-04 -0.41754725E-04 -0.42709377E-04
 -0.43295079E-04 -0.43515379E-04 -0.43376686E-04 -0.42888159E-04 -0.42061567E-04
 -0.40911137E-04 -0.39453389E-04 -0.37706946E-04 -0.35692344E-04 -0.33431820E-04
 -0.30949100E-04 -0.28269173E-04 -0.25418063E-04 -0.22422601E-04 -0.19310189E-04
 -0.16108567E-04 -0.12845587E-04 -0.95489860E-05 -0.62461650E-05 -0.29639784E-05
  0.27147015E-06  0.34350196E-05  0.65026332E-05  0.94515664E-05  0.12260521E-04
  0.14909784E-04  0.17381354E-04  0.19659043E-04  0.21728572E-04  0.23577645E-04
  0.25195999E-04  0.26575450E-04  0.27709908E-04  0.28595386E-04  0.29229984E-04
  0.29613862E-04  0.29749194E-04  0.29640108E-04  0.29292612E-04  0.28714505E-04
  0.27915282E-04  0.26906014E-04  0.25699232E-04  0.24308797E-04  0.22749757E-04
  0.21038204E-04  0.19191124E-04  0.17226241E-04  0.15161860E-04  0.13016710E-04
  0.10809784E-04  0.85601795E-05  0.62869475E-05  0.40089378E-05  0.17446530E-05
 -0.48789205E-06 -0.26713054E-05 -0.47889439E-05 -0.68250317E-05 -0.87647686E-05
 -0.10594429E-04 -0.12301450E-04 -0.13874509E-04 -0.15303588E-04 -0.16580029E-04
 -0.17696575E-04 -0.18647401E-04 -0.19428131E-04 -0.20035843E-04 -0.20469067E-04
 -0.20727764E-04 -0.20813300E-04 -0.20728407E-04 -0.20477131E-04 -0.20064780E-04
 -0.19497848E-04 -0.18783949E-04 -0.17931725E-04 -0.16950764E-04 -0.15851498E-04
 -0.14645110E-04 -0.13343424E-04 -0.11958799E-04 -0.10504021E-04 -0.89921937E-05
 -0.74366226E-05 -0.58507085E-05 -0.42478373E-05 -0.26412725E-05 -0.10440520E-05
  0.53111212E-06  0.20719294E-05  0.35666209E-05  0.50040041E-05  0.63735706E-05
  0.76655579E-05  0.88710130E-05  0.99818485E-05  0.10990891E-04  0.11891923E-04
  0.12679710E-04  0.13350029E-04  0.13899680E-04  0.14326493E-04  0.14629326E-04
  0.14808057E-04  0.14863561E-04  0.14797689E-04  0.14613232E-04  0.14313883E-04
  0.13904189E-04  0.13389499E-04  0.12775909E-04  0.12070193E-04  0.11279744E-04
  0.10412497E-04  0.94768598E-05  0.84816330E-05  0.74359358E-05  0.63491253E-05
  0.52307177E-05  0.40903090E-05  0.29374968E-05  0.17818033E-05  0.63260070E-06
 -0.50096148E-06 -0.16100254E-05 -0.26860904E-05 -0.37210750E-05 -0.47073736E-05
 -0.56379091E-05 -0.65061799E-05 -0.73063014E-05 -0.80330425E-05 -0.86818553E-05
 -0.92488994E-05 -0.97310601E-05 -0.10125960E-04 -0.10431966E-04 -0.10648188E-04
 -0.10774472E-04 -0.10811390E-04 -0.10760223E-04 -0.10622935E-04 -0.10402149E-04
 -0.10101112E-04 -0.97236588E-05 -0.92741698E-05 -0.87575285E-05 -0.81790718E-05
 -0.75445402E-05 -0.68600240E-05 -0.61319094E-05 -0.53668213E-05 -0.45715666E-05
 -0.37530765E-05 -0.29183487E-05 -0.20743901E-05 -0.12281608E-05 -0.38651930E-06
  0.44383122E-06  0.12563934E-05  0.20449244E-05  0.28034814E-05  0.35264642E-05
  0.42086540E-05  0.48452488E-05  0.54318947E-05  0.59647131E-05  0.64403237E-05
  0.68558631E-05  0.72089987E-05  0.74979389E-05  0.77214377E-05  0.78787960E-05
  0.79698575E-05  0.79950011E-05  0.79551287E-05  0.78516494E-05  0.76864592E-05
  0.74619185E-05  0.71808245E-05  0.68463822E-05  0.64621718E-05  0.60321132E-05
  0.55604299E-05  0.50516095E-05  0.45103634E-05  0.39415857E-05  0.33503108E-05
  0.27416706E-05  0.21208523E-05  0.14930553E-05  0.86344995E-06  0.23713621E-06
 -0.38089575E-06 -0.98580386E-06 -0.15729305E-05 -0.21378366E-05 -0.26763339E-05
 -0.31845142E-05 -0.36587763E-05 -0.40958494E-05 -0.44928147E-05 -0.48471221E-05
 -0.51566056E-05 -0.54194937E-05 -0.56344179E-05 -0.58004165E-05 -0.59169362E-05
 -0.59838299E-05 -0.60013511E-05 -0.59701460E-05 -0.58912413E-05 -0.57660308E-05
 -0.55962575E-05 -0.53839948E-05 -0.51316241E-05 -0.48418113E-05 -0.45174805E-05
 -0.41617868E-05 -0.37780876E-05 -0.33699117E-05 -0.29409294E-05 -0.24949200E-05
 -0.20357404E-05 -0.15672926E-05 -0.10934921E-05 -0.61823620E-06 -0.14537283E-06
  0.32132906E-06  0.77820874E-06  0.12217412E-05  0.16485633E-05  0.20554983E-05
  0.24395781E-05  0.27980640E-05  0.31284653E-05  0.34285549E-05  0.36963832E-05
  0.39302900E-05  0.41289126E-05  0.42911923E-05  0.44163787E-05  0.45040305E-05
  0.45540143E-05  0.45665013E-05  0.45419610E-05  0.44811529E-05  0.43851162E-05
  0.42551572E-05  0.40928344E-05  0.38999428E-05  0.36784954E-05  0.34307042E-05
  0.31589592E-05  0.28658068E-05  0.25539269E-05  0.22261094E-05  0.18852304E-05
  0.15342277E-05  0.11760766E-05  0.81376500E-06  0.45026995E-06  0.88533475E-07
 -0.26856022E-06 -0.61820705E-06 -0.95770432E-06 -0.12844708E-05 -0.15960658E-05
 -0.18902062E-05 -0.21647829E-05 -0.24178748E-05 -0.26477615E-05 -0.28529343E-05
 -0.30321048E-05 -0.31842122E-05 -0.33084285E-05 -0.34041618E-05 -0.34710572E-05
 -0.35089964E-05 -0.35180955E-05 -0.34987001E-05 -0.34513795E-05 -0.33769188E-05
 -0.32763098E-05 -0.31507394E-05 -0.30015780E-05 -0.28303652E-05 -0.26387956E-05
 -0.24287027E-05 -0.22020421E-05 -0.19608746E-05 -0.17073475E-05 -0.14436767E-05
 -0.11721277E-05 -0.89499680E-06 -0.61459239E-06 -0.33321616E-06 -0.53144826E-07
  0.22338776E-06  0.49420789E-06  0.75721853E-06  0.10104150E-05  0.12518999E-05
  0.14798964E-05  0.16927611E-05  0.18889953E-05  0.20672547E-05  0.22263582E-05
  0.23652951E-05  0.24832305E-05  0.25795099E-05  0.26536616E-05  0.27053981E-05
  0.27346159E-05  0.27413934E-05  0.27259881E-05  0.26888319E-05  0.26305252E-05
  0.25518297E-05  0.24536603E-05  0.23370754E-05  0.22032665E-05  0.20535469E-05
  0.18893393E-05  0.17121632E-05  0.15236213E-05  0.13253853E-05  0.11191817E-05
  0.90677748E-06  0.68996497E-06  0.47054745E-06  0.25032444E-06  0.31077374E-07
 -0.18544442E-06 -0.39753729E-06 -0.60355628E-06 -0.80192750E-06 -0.99115976E-06
 -0.11698554E-05 -0.13367202E-05 -0.14905724E-05 -0.16303504E-05 -0.17551200E-05
 -0.18640801E-05 -0.19565669E-05 -0.20320579E-05 -0.20901739E-05 -0.21306801E-05
 -0.21534863E-05 -0.21586453E-05 -0.21463509E-05 -0.21169343E-05 -0.20708597E-05
 -0.20087186E-05 -0.19312237E-05 -0.18392014E-05 -0.17335835E-05 -0.16153987E-05
 -0.14857629E-05 -0.13458691E-05 -0.11969767E-05 -0.10404010E-05 -0.87750124E-06
 -0.70966980E-06 -0.53832020E-06 -0.36487566E-06 -0.19075758E-06 -0.17374107E-07
  0.15389088E-06  0.32168858E-06  0.48471561E-06  0.64172384E-06  0.79152966E-06
  0.93302261E-06  0.10651734E-05  0.11870409E-05  0.12977787E-05  0.13966409E-05
  0.14829860E-05  0.15562815E-05  0.16161065E-05  0.16621534E-05  0.16942291E-05
  0.17122552E-05  0.17162668E-05  0.17064111E-05  0.16829446E-05  0.16462297E-05
  0.15967305E-05  0.15350075E-05  0.14617124E-05  0.13775813E-05  0.12834277E-05
  0.11801353E-05  0.10686500E-05  0.94997124E-06  0.82514349E-06  0.69524743E-06
  0.56139069E-06  0.42469870E-06  0.28630543E-06  0.14734422E-06  0.89387237E-08
 -0.12780601E-06 -0.26181211E-06 -0.39203717E-06 -0.51748219E-06 -0.63719899E-06
 -0.75029719E-06 -0.85595059E-06 -0.95340302E-06 -0.10419735E-05 -0.11210608E-05
 -0.11901471E-05 -0.12488013E-05 -0.12966813E-05 -0.13335358E-05 -0.13592047E-05
 -0.13736199E-05 -0.13768043E-05 -0.13688705E-05 -0.13500190E-05 -0.13205353E-05
 -0.12807867E-05 -0.12312185E-05 -0.11723489E-05 -0.11047647E-05 -0.10291152E-05
 -0.94610665E-06 -0.85649546E-06 -0.76108190E-06 -0.66070303E-06 -0.55622549E-06
 -0.44853829E-06 -0.33854538E-06 -0.22715822E-06 -0.11528843E-06 -0.38404411E-08
  0.10629562E-06  0.21425090E-06  0.31918452E-06  0.42028997E-06  0.51680114E-06
  0.60799800E-06  0.69321177E-06  0.77182969E-06  0.84329921E-06  0.90713176E-06
  0.96290585E-06  0.10102696E-05  0.10489429E-05  0.10787186E-05  0.10994632E-05
  0.11111175E-05  0.11136958E-05  0.11072849E-05  0.10920428E-05  0.10681964E-05
  0.10360388E-05  0.99592652E-06  0.94827541E-06  0.89355703E-06  0.83229400E-06
  0.76505527E-06  0.69245101E-06  0.61512727E-06  0.53376034E-06  0.44905102E-06
  0.36171869E-06  0.27249536E-06  0.18211963E-06  0.91330735E-07  0.86259610E-09
 atomic pseudo charge-density
  0.60000000E+01  0.59880172E+01  0.59522340E+01  0.58931406E+01  0.58115382E+01
  0.57085152E+01  0.55854165E+01  0.54438069E+01  0.52854296E+01  0.51121626E+01
  0.49259748E+01  0.47288831E+01  0.45229115E+01  0.43100549E+01  0.40922464E+01
  0.38713305E+01  0.36490406E+01  0.34269829E+01  0.32066243E+01  0.29892848E+01
  0.27761351E+01  0.25681961E+01  0.23663428E+01  0.21713091E+01  0.19836957E+01
  0.18039783E+01  0.16325172E+01  0.14695672E+01  0.13152874E+01  0.11697518E+01
  0.10329587E+01  0.90484008E+00  0.78527059E+00  0.67407587E+00  0.57104022E+00
  0.47591364E+00  0.38841836E+00  0.30825458E+00  0.23510580E+00  0.16864342E+00
  0.10853094E+00  0.54427588E-01  0.59914789E-02 -0.37117584E-01 -0.75235760E-01
 -0.10869315E+00 -0.13781209E+00 -0.16290578E+00 -0.18427711E+00 -0.20221776E+00
 -0.21700752E+00 -0.22891376E+00 -0.23819112E+00 -0.24508124E+00 -0.24981276E+00
 -0.25260131E+00 -0.25364962E+00 -0.25314777E+00 -0.25127346E+00 -0.24819227E+00
 -0.24405811E+00 -0.23901361E+00 -0.23319052E+00 -0.22671019E+00 -0.21968406E+00
 -0.21221411E+00 -0.20439335E+00 -0.19630631E+00 -0.18802949E+00 -0.17963189E+00
 -0.17117540E+00 -0.16271529E+00 -0.15430067E+00 -0.14597484E+00 -0.13777577E+00
 -0.12973644E+00 -0.12188525E+00 -0.11424634E+00 -0.10683997E+00 -0.99682801E-01
 -0.92788244E-01 -0.86166711E-01 -0.79825906E-01 -0.73771081E-01 -0.68005271E-01
 -0.62529526E-01 -0.57343119E-01 -0.52443743E-01 -0.47827698E-01 -0.43490061E-01
 -0.39424845E-01 -0.35625146E-01 -0.32083279E-01 -0.28790907E-01 -0.25739150E-01
 -0.22918701E-01 -0.20319911E-01 -0.17932891E-01 -0.15747580E-01 -0.13753828E-01
 -0.11941457E-01 -0.10300321E-01 -0.88203613E-02 -0.74916511E-02 -0.63044385E-02
 -0.52491836E-02 -0.43165897E-02 -0.34976310E-02 -0.27835759E-02 -0.21660068E-02
 -0.16368355E-02 -0.11883163E-02 -0.81305554E-03 -0.50401828E-03 -0.25453295E-03
 -0.58293155E-04  0.90642405E-04  0.19785194E-03  0.26855436E-03  0.30761456E-03
  0.31955018E-03  0.30853948E-03  0.27843046E-03  0.23275074E-03  0.17471842E-03
  0.10725352E-03  0.32990041E-04 -0.45711472E-04 -0.12675108E-03 -0.20827625E-03
 -0.28866852E-03 -0.36653003E-03 -0.44067003E-03 -0.51009141E-03 -0.57397738E-03
 -0.63167825E-03 -0.68269847E-03 -0.72668392E-03 -0.76340944E-03 -0.79276687E-03
 -0.81475323E-03 -0.82945956E-03 -0.83705999E-03 -0.83780137E-03 -0.83199338E-03
 -0.81999909E-03 -0.80222601E-03 -0.77911777E-03 -0.75114611E-03 -0.71880361E-03
 -0.68259681E-03 -0.64303987E-03 -0.60064878E-03 -0.55593604E-03 -0.50940588E-03
 -0.46154991E-03 -0.41284334E-03 -0.36374156E-03 -0.31467724E-03 -0.26605785E-03
 -0.21826357E-03 -0.17164561E-03 -0.12652494E-03 -0.83191304E-04 -0.41902642E-04
 -0.28847887E-05  0.33668525E-04  0.67595400E-04  0.98765246E-04  0.12707803E-03
  0.15246333E-03  0.17487917E-03  0.19431076E-03  0.21076900E-03  0.22428895E-03
  0.23492815E-03  0.24276486E-03  0.24789627E-03  0.25043661E-03  0.25051527E-03
  0.24827492E-03  0.24386958E-03  0.23746275E-03  0.22922554E-03  0.21933490E-03
  0.20797182E-03  0.19531966E-03  0.18156253E-03  0.16688372E-03  0.15146431E-03
  0.13548177E-03  0.11910872E-03  0.10251176E-03  0.85850482E-04  0.69276471E-04
  0.52932528E-04  0.36951940E-04  0.21457891E-04  0.65629673E-05 -0.76312191E-05
 -0.21034305E-04 -0.33567348E-04 -0.45162897E-04 -0.55764974E-04 -0.65328958E-04
 -0.73821387E-04 -0.81219689E-04 -0.87511823E-04 -0.92695873E-04 -0.96779561E-04
 -0.99779724E-04 -0.10172173E-03 -0.10263886E-03 -0.10257165E-03 -0.10156722E-03
 -0.99678568E-04 -0.96963831E-04 -0.93485592E-04 -0.89310129E-04 -0.84506699E-04
 -0.79146818E-04 -0.73303560E-04 -0.67050873E-04 -0.60462917E-04 -0.53613434E-04
 -0.46575144E-04 -0.39419179E-04 -0.32214557E-04 -0.25027686E-04 -0.17921925E-04
 -0.10957174E-04 -0.41895254E-05  0.23290541E-05  0.85509831E-05  0.14433284E-04
  0.19937751E-04  0.25031076E-04  0.29684924E-04  0.33875971E-04  0.37585889E-04
  0.40801303E-04  0.43513697E-04  0.45719293E-04  0.47418887E-04  0.48617663E-04
  0.49324971E-04  0.49554078E-04  0.49321908E-04  0.48648742E-04  0.47557925E-04
  0.46075536E-04  0.44230068E-04  0.42052085E-04  0.39573882E-04  0.36829143E-04
  0.33852602E-04  0.30679699E-04  0.27346256E-04  0.23888151E-04  0.20341012E-04
  0.16739914E-04  0.13119105E-04  0.95117384E-05  0.59496275E-05  0.24630228E-05
 -0.91959319E-06 -0.41716864E-05 -0.72688302E-05 -0.10188840E-04 -0.12911886E-04
 -0.15420578E-04 -0.17700031E-04 -0.19737905E-04 -0.21524424E-04 -0.23052369E-04
 -0.24317050E-04 -0.25316264E-04 -0.26050223E-04 -0.26521475E-04 -0.26734796E-04
 -0.26697076E-04 -0.26417189E-04 -0.25905844E-04 -0.25175438E-04 -0.24239883E-04
 -0.23114443E-04 -0.21815550E-04 -0.20360627E-04 -0.18767899E-04 -0.17056215E-04
 -0.15244856E-04 -0.13353358E-04 -0.11401332E-04 -0.94082908E-05 -0.73934812E-05
 -0.53757252E-05 -0.33732694E-05 -0.14036436E-05  0.51646965E-06  0.23713541E-05
  0.41463669E-05  0.58280331E-05  0.74041275E-05  0.88637425E-05  0.10197343E-04
  0.11396809E-04  0.12455460E-04  0.13368074E-04  0.14130886E-04  0.14741579E-04
  0.15199256E-04  0.15504413E-04  0.15658886E-04  0.15665797E-04  0.15529491E-04
  0.15255458E-04  0.14850253E-04  0.14321405E-04  0.13677326E-04  0.12927206E-04
  0.12080915E-04  0.11148892E-04  0.10142039E-04  0.90716113E-05  0.79491068E-05
  0.67861592E-05  0.55944307E-05  0.43855088E-05  0.31708056E-05  0.19614625E-05
  0.76825876E-06 -0.39847291E-06 -0.15289258E-05 -0.26138908E-05 -0.36448220E-05
 -0.46138930E-05 -0.55140474E-05 -0.63390394E-05 -0.70834675E-05 -0.77427989E-05
 -0.83133866E-05 -0.87924771E-05 -0.91782116E-05 -0.94696177E-05 -0.96665947E-05
 -0.97698911E-05 -0.97810755E-05 -0.97025009E-05 -0.95372629E-05 -0.92891529E-05
 -0.89626062E-05 -0.85626454E-05 -0.80948209E-05 -0.75651474E-05 -0.69800387E-05
 -0.63462402E-05 -0.56707605E-05 -0.49608019E-05 -0.42236918E-05 -0.34668138E-05
 -0.26975410E-05 -0.19231702E-05 -0.11508590E-05 -0.38756538E-06  0.36000927E-06
  0.10854734E-05  0.17827947E-05  0.24463449E-05  0.30709399E-05  0.36518754E-05
  0.41849565E-05  0.46665233E-05  0.50934698E-05  0.54632587E-05  0.57739299E-05
  0.60241039E-05  0.62129805E-05  0.63403313E-05  0.64064888E-05  0.64123292E-05
  0.63592519E-05  0.62491546E-05  0.60844040E-05  0.58678040E-05  0.56025598E-05
  0.52922401E-05  0.49407362E-05  0.45522198E-05  0.41310989E-05  0.36819728E-05
  0.32095867E-05  0.27187851E-05  0.22144666E-05  0.17015386E-05  0.11848727E-05
  0.66926242E-06  0.15938126E-06 -0.34025605E-06 -0.82533070E-06 -0.12917541E-05
 -0.17356993E-05 -0.21536297E-05 -0.25423242E-05 -0.28988990E-05 -0.32208259E-05
 -0.35059475E-05 -0.37524879E-05 -0.39590604E-05 -0.41246713E-05 -0.42487202E-05
 -0.43309968E-05 -0.43716739E-05 -0.43712980E-05 -0.43307755E-05 -0.42513573E-05
 -0.41346197E-05 -0.39824432E-05 -0.37969890E-05 -0.35806733E-05 -0.33361403E-05
 -0.30662332E-05 -0.27739643E-05 -0.24624845E-05 -0.21350515E-05 -0.17949984E-05
 -0.14457020E-05 -0.10905511E-05 -0.73291618E-06 -0.37611884E-06 -0.23403101E-07
  0.32209237E-06  0.65736038E-06  0.97954965E-06  0.12859874E-05  0.15741996E-05
  0.18419295E-05  0.20871535E-05  0.23080943E-05  0.25032325E-05  0.26713144E-05
  0.28113585E-05  0.29226584E-05  0.30047839E-05  0.30575790E-05  0.30811580E-05
  0.30758988E-05  0.30424343E-05  0.29816415E-05  0.28946287E-05  0.27827206E-05
  0.26474423E-05  0.24905012E-05  0.23137681E-05  0.21192569E-05  0.19091036E-05
  0.16855442E-05  0.14508929E-05  0.12075194E-05  0.95782608E-06  0.70422598E-06
  0.44912034E-06  0.19487722E-06 -0.56189390E-07 -0.30183952E-06 -0.53992615E-06
 -0.76841285E-06 -0.98539023E-06 -0.11890907E-05 -0.13779021E-05 -0.15503788E-05
 -0.17052524E-05 -0.18414392E-05 -0.19580470E-05 -0.20543793E-05 -0.21299382E-05
 -0.21844246E-05 -0.22177380E-05 -0.22299731E-05 -0.22214152E-05 -0.21925345E-05
 -0.21439781E-05 -0.20765607E-05 -0.19912543E-05 -0.18891761E-05 -0.17715761E-05
 -0.16398230E-05 -0.14953894E-05 -0.13398367E-05 -0.11747994E-05 -0.10019684E-05
 -0.82307495E-06 -0.63987401E-06 -0.45412786E-06 -0.26758988E-06 -0.81988762E-07
  0.10098682E-06  0.27970285E-06  0.45259389E-06  0.61817614E-06  0.77505944E-06
  0.92195832E-06  0.10577018E-05  0.11812421E-05  0.12916619E-05  0.13881804E-05
  0.14701581E-05  0.15371002E-05  0.15886581E-05  0.16246306E-05  0.16449628E-05
  0.16497440E-05  0.16392046E-05  0.16137113E-05  0.15737614E-05  0.15199760E-05
  0.14530922E-05  0.13739544E-05  0.12835045E-05  0.11827720E-05  0.10728626E-05
  0.95494709E-06  0.83024958E-06  0.70003516E-06  0.56559779E-06  0.42824795E-06
  0.28930035E-06  0.15006189E-06  0.11819786E-07 -0.12416981E-06 -0.25669282E-06
 -0.38458759E-06 -0.50675464E-06 -0.62216568E-06 -0.72987181E-06 -0.82901087E-06
 -0.91881386E-06 -0.99861042E-06 -0.10678333E-05 -0.11260219E-05 -0.11728246E-05
 -0.12080003E-05 -0.12314186E-05 -0.12430592E-05 -0.12430106E-05 -0.12314670E-05
 -0.12087252E-05 -0.11751796E-05 -0.11313179E-05 -0.10777142E-05 -0.10150229E-05
 -0.94397109E-06 -0.86535089E-06 -0.78001100E-06 -0.68884812E-06 -0.59279784E-06
 -0.49282553E-06 -0.38991694E-06 -0.28506889E-06 -0.17927992E-06 -0.73541106E-07
  0.31172866E-07  0.13391242E-06  0.23376136E-06  0.32984478E-06  0.42133638E-06
  0.50746529E-06  0.58752227E-06  0.66086523E-06  0.72692406E-06  0.78520470E-06
  0.83529250E-06  0.87685475E-06  0.90964247E-06  0.93349133E-06  0.94832190E-06
  0.95413899E-06  0.95103031E-06  0.93916437E-06  0.91878768E-06  0.89022126E-06
  0.85385654E-06  0.81015068E-06  0.75962136E-06  0.70284105E-06  0.64043096E-06
  0.57305456E-06  0.50141083E-06  0.42622729E-06  0.34825290E-06  0.26825084E-06
  0.18699127E-06  0.10524418E-06  0.23772259E-07 -0.56675935E-07 -0.13537269E-06
 -0.21161748E-06 -0.28474301E-06 -0.35412086E-06 -0.41916663E-06 -0.47934468E-06
 -0.53417233E-06 -0.58322349E-06 -0.62613171E-06 -0.66259268E-06 -0.69236609E-06
 -0.71527689E-06 -0.73121592E-06 -0.74013993E-06 -0.74207102E-06 -0.73709542E-06
 -0.72536180E-06 -0.70707895E-06 -0.68251297E-06 -0.65198396E-06 -0.61586234E-06
 -0.57456463E-06 -0.52854898E-06 -0.47831032E-06 -0.42437531E-06 -0.36729696E-06
 -0.30764921E-06 -0.24602134E-06 -0.18301229E-06 -0.11922501E-06 -0.55260890E-07
  0.82857942E-08  0.70833234E-07  0.13181727E-06  0.19069632E-06  0.24695606E-06
  0.30011376E-06  0.34972226E-06  0.39537360E-06  0.43670220E-06  0.47338766E-06
  0.50515698E-06  0.53178649E-06  0.55310316E-06  0.56898548E-06  0.57936386E-06
  0.58422052E-06  0.58358890E-06  0.57755269E-06  0.56624429E-06  0.54984291E-06
  0.52857231E-06  0.50269803E-06  0.47252442E-06  0.43839126E-06  0.40067014E-06
  0.35976059E-06  0.31608602E-06  0.27008944E-06  0.22222914E-06  0.17297427E-06
  0.12280029E-06  0.72184593E-07  0.21601997E-07 -0.28479555E-07 -0.77603225E-07
 -0.12532734E-06 -0.17122927E-06 -0.21490903E-06 -0.25599269E-06 -0.29413546E-06
 -0.32902445E-06 -0.36038114E-06 -0.38796349E-06 -0.41156764E-06 -0.43102929E-06
 -0.44622468E-06 -0.45707119E-06 -0.46352750E-06 -0.46559346E-06 -0.46330952E-06
 -0.45675578E-06 -0.44605076E-06 -0.43134974E-06 -0.41284289E-06 -0.39075297E-06
 -0.36533290E-06 -0.33686301E-06 -0.30564805E-06 -0.27201409E-06 -0.23630518E-06
 -0.19888000E-06 -0.16010829E-06 -0.12036732E-06 -0.80038300E-07 -0.39502816E-07
  0.86071293E-09  0.40680476E-07  0.79594620E-07  0.11725446E-06  0.15332752E-06
  0.18750039E-06  0.21948139E-06  0.24900295E-06  0.27582377E-06  0.29973072E-06
  0.32054041E-06  0.33810054E-06  0.35229087E-06  0.36302388E-06  0.37024524E-06
  0.37393379E-06  0.37410135E-06  0.37079219E-06  0.36408216E-06  0.35407761E-06
  0.34091402E-06  0.32475435E-06  0.30578716E-06  0.28422461E-06  0.26030011E-06
  0.23426595E-06  0.20639070E-06  0.17695651E-06  0.14625635E-06  0.11459117E-06
  0.82266971E-07  0.49591969E-07  0.16873675E-07 -0.15583917E-07 -0.47483103E-07
 -0.78535138E-07 -0.10846279E-06 -0.13700277E-06 -0.16390796E-06 -0.18894953E-06
 -0.21191879E-06 -0.23262888E-06 -0.25091624E-06 -0.26664178E-06 -0.27969191E-06
 -0.28997924E-06 -0.29744307E-06 -0.30204960E-06 -0.30379192E-06 -0.30268976E-06
 -0.29878893E-06 -0.29216058E-06 -0.28290025E-06 -0.27112667E-06 -0.25698038E-06
 -0.24062212E-06 -0.22223115E-06 -0.20200333E-06 -0.18014910E-06 -0.15689137E-06
 -0.13246330E-06 -0.10710599E-06 -0.81066191E-07 -0.54593933E-07 -0.27940169E-07
 -0.13544501E-08  0.24917371E-07  0.50635365E-07  0.75567678E-07  0.99492573E-07
  0.12220036E-06  0.14349519E-06  0.16319670E-06  0.18114147E-06  0.19718439E-06
  0.21119969E-06  0.22308195E-06  0.23274679E-06  0.24013139E-06  0.24519483E-06
  0.24791821E-06  0.24830452E-06  0.24637839E-06  0.24218557E-06  0.23579227E-06
  0.22728432E-06  0.21676608E-06  0.20435931E-06  0.19020183E-06  0.17444599E-06
  0.15725718E-06  0.13881205E-06  0.11929683E-06  0.98905410E-07  0.77837512E-07
  0.56296745E-07  0.34488679E-07  0.12618922E-07 -0.91087878E-08 -0.30494443E-07
 -0.51343576E-07 -0.71468993E-07 -0.90692421E-07 -0.10884606E-06 -0.12577399E-06
 -0.14133350E-06 -0.15539627E-06 -0.16784931E-06 -0.17859594E-06 -0.18755639E-06
 -0.19466841E-06 -0.19988761E-06 -0.20318768E-06 -0.20456038E-06 -0.20401546E-06
 -0.20158035E-06 -0.19729967E-06 -0.19123461E-06 -0.18346225E-06 -0.17407456E-06
 -0.16317743E-06 -0.15088954E-06 -0.13734107E-06 -0.12267239E-06 -0.10703265E-06
 -0.90578251E-07 -0.73471380E-07 -0.55878385E-07 -0.37968212E-07 -0.19910806E-07
 -0.18755259E-08  0.15970421E-07  0.33463498E-07  0.50445317E-07  0.66764041E-07
  0.82275722E-07  0.96845540E-07  0.11034895E-06  0.12267271E-06  0.13371582E-06
  0.14339030E-06  0.15162186E-06  0.15835045E-06  0.16353063E-06  0.16713184E-06
  0.16913852E-06  0.16955005E-06  0.16838065E-06  0.16565900E-06  0.16142788E-06
  0.15574360E-06  0.14867529E-06  0.14030415E-06  0.13072255E-06  0.12003305E-06
  0.10834734E-06  0.95785087E-07  0.82472768E-07  0.68542387E-07  0.54130211E-07
  0.39375451E-07  0.24418947E-07  0.94018372E-08 -0.55357485E-08 -0.20255977E-07
 -0.34624564E-07 -0.48511977E-07 -0.61794586E-07 -0.74355740E-07 -0.86086772E-07
 -0.96887921E-07 -0.10666915E-06 -0.11535088E-06 -0.12286461E-06 -0.12915342E-06
 -0.13417240E-06 -0.13788889E-06 -0.14028268E-06 -0.14134607E-06 -0.14108375E-06
 -0.13951270E-06 -0.13666180E-06 -0.13257154E-06 -0.12729344E-06 -0.12088947E-06
 -0.11343138E-06 -0.10499991E-06 -0.95683961E-07 -0.85579653E-07 -0.74789389E-07
 -0.63420819E-07 -0.51585789E-07 -0.39399260E-07 -0.26978208E-07 -0.14440521E-07
 -0.19038897E-08  0.10515272E-07  0.22702899E-07  0.34548304E-07  0.45945165E-07
  0.56792469E-07  0.66995384E-07  0.76466078E-07  0.85124454E-07  0.92898809E-07
  0.99726410E-07  0.10555398E-06  0.11033809E-06  0.11404545E-06  0.11665313E-06
  0.11814862E-06  0.11852990E-06  0.11780526E-06  0.11599321E-06  0.11312211E-06
  0.10922988E-06  0.10436349E-06  0.98578450E-07  0.91938214E-07  0.84513491E-07
  0.76381524E-07  0.67625299E-07  0.58332718E-07  0.48595732E-07  0.38509445E-07
  0.28171202E-07  0.17679658E-07  0.71338540E-08 -0.33677047E-08 -0.13727959E-07
 -0.23852179E-07 -0.33648817E-07 -0.43030324E-07 -0.51913917E-07 -0.60222299E-07
 -0.67884319E-07 -0.74835563E-07 -0.81018884E-07 -0.86384855E-07 -0.90892149E-07
 -0.94507832E-07 -0.97207587E-07 -0.98975848E-07 -0.99805850E-07 -0.99699605E-07
 -0.98667791E-07 -0.96729561E-07 -0.93912279E-07 -0.90251183E-07 -0.85788975E-07
 -0.80575348E-07 -0.74666455E-07 -0.68124320E-07 -0.61016202E-07 -0.53413921E-07
 -0.45393142E-07 -0.37032635E-07 -0.28413514E-07 -0.19618458E-07 -0.10730935E-07
 -0.18344113E-08  0.69884133E-08  0.15656371E-07  0.24090557E-07  0.32215045E-07
  0.39957552E-07  0.47250077E-07  0.54029486E-07  0.60238046E-07  0.65823909E-07
  0.70741527E-07  0.74952016E-07  0.78423444E-07  0.81131061E-07  0.83057448E-07
  0.84192615E-07  0.84534007E-07  0.84086462E-07  0.82862085E-07  0.80880065E-07
  0.78166425E-07  0.74753713E-07  0.70680634E-07  0.65991628E-07  0.60736402E-07
  0.54969417E-07  0.48749333E-07  0.42138426E-07  0.35201972E-07  0.28007614E-07
  0.20624713E-07  0.13123682E-07  0.55753301E-08 -0.19498024E-08 -0.93820929E-08
 -0.16653473E-07 -0.23698044E-07 -0.30452666E-07 -0.36857515E-07 -0.42856604E-07
 -0.48398266E-07 -0.53435586E-07 -0.57926793E-07 -0.61835593E-07 -0.65131451E-07
 -0.67789820E-07 -0.69792306E-07 -0.71126779E-07 -0.71787425E-07 -0.71774734E-07
   17.9523968914998      T
 Non local Part
           0           2   1.13629494093598     
   6.17377536195219        6.86361468384858        6.86361468384858     
   7.62726405911764     
 Reciprocal Space Part
  0.13332014E+03  0.13240184E+03  0.12966104E+03  0.12513983E+03  0.11890753E+03
  0.11105936E+03  0.10171480E+03  0.91015355E+02  0.79122067E+02  0.66212586E+02
  0.52478025E+02  0.38119585E+02  0.23345025E+02  0.83650743E+01 -0.66101803E+01
 -0.21374825E+02 -0.35730526E+02 -0.49489732E+02 -0.62478626E+02 -0.74539759E+02
 -0.85534336E+02 -0.95344094E+02 -0.10387277E+03 -0.11104714E+03 -0.11681753E+03
 -0.12115802E+03 -0.12406601E+03 -0.12556156E+03 -0.12568619E+03 -0.12450136E+03
 -0.12208662E+03 -0.11853755E+03 -0.11396335E+03 -0.10848435E+03 -0.10222938E+03
 -0.95333116E+02 -0.87933337E+02 -0.80168338E+02 -0.72174394E+02 -0.64083386E+02
 -0.56020627E+02 -0.48102924E+02 -0.40436899E+02 -0.33117595E+02 -0.26227390E+02
 -0.19835218E+02 -0.13996107E+02 -0.87510213E+01 -0.41270018E+01 -0.13758307E+00
  0.32165351E+01  0.59465898E+01  0.80746629E+01  0.96324290E+01  0.10659781E+02
  0.11203370E+02  0.11315097E+02  0.11050592E+02  0.10467724E+02  0.96251571E+01
  0.85810002E+01  0.73915672E+01  0.61102694E+01  0.47866591E+01  0.34656370E+01
  0.21868300E+01  0.98414411E+00 -0.11451009E+00 -0.10873239E+01 -0.19185390E+01
 -0.25982500E+01 -0.31220770E+01 -0.34907253E+01 -0.37094535E+01 -0.37874679E+01
 -0.37372672E+01 -0.35739564E+01 -0.33145512E+01 -0.29772924E+01 -0.25809875E+01
 -0.21443949E+01 -0.16856651E+01 -0.12218494E+01 -0.76848350E+00 -0.33925360E+00
  0.54253922E-01  0.40271772E+00  0.69916417E+00  0.93897157E+00  0.11198020E+01
  0.12414691E+01  0.13057499E+01  0.13161523E+01  0.12776475E+01  0.11963789E+01
  0.10793583E+01  0.93416009E+00  0.76862224E+00  0.59056389E+00  0.40752671E+00
 Real Space Part
 -0.60797257E+03 -0.60754490E+03 -0.60626327E+03 -0.60413193E+03 -0.60115784E+03
 -0.59735074E+03 -0.59272296E+03 -0.58728943E+03 -0.58106749E+03 -0.57407679E+03
 -0.56633916E+03 -0.55787842E+03 -0.54872028E+03 -0.53889208E+03 -0.52842271E+03
 -0.51734236E+03 -0.50568238E+03 -0.49347508E+03 -0.48075361E+03 -0.46755171E+03
 -0.45390365E+03 -0.43984402E+03 -0.42540760E+03 -0.41062925E+03 -0.39554382E+03
 -0.38018597E+03 -0.36459019E+03 -0.34879063E+03 -0.33282112E+03 -0.31671506E+03
 -0.30050540E+03 -0.28422465E+03 -0.26790482E+03 -0.25157743E+03 -0.23527353E+03
 -0.21902370E+03 -0.20285806E+03 -0.18680630E+03 -0.17089771E+03 -0.15516119E+03
 -0.13962530E+03 -0.12431827E+03 -0.10926804E+03 -0.94502258E+02 -0.80048312E+02
 -0.65933328E+02 -0.52184172E+02 -0.38827429E+02 -0.25889387E+02 -0.13395988E+02
 -0.13727809E+01  0.10155154E+02  0.21163293E+02  0.31627773E+02  0.41525521E+02
  0.50834398E+02  0.59533368E+02  0.67602678E+02  0.75024068E+02  0.81780987E+02
  0.87858837E+02  0.93245220E+02  0.97930204E+02  0.10190659E+03  0.10517018E+03
  0.10772006E+03  0.10955885E+03  0.11069295E+03  0.11113279E+03  0.11089299E+03
  0.10999257E+03  0.10845502E+03  0.10630843E+03  0.10358544E+03  0.10032325E+03
  0.96563454E+02  0.92351883E+02  0.87738311E+02  0.82776140E+02  0.77521956E+02
  0.72035054E+02  0.66376878E+02  0.60610392E+02  0.54799429E+02  0.49007957E+02
  0.43299364E+02  0.37735686E+02  0.32376867E+02  0.27280018E+02  0.22498707E+02
  0.18082294E+02  0.14075333E+02  0.10517013E+02  0.74407284E+01  0.48736645E+01
  0.28366048E+01  0.13436873E+01  0.40004874E+00  0.19080125E-01  0.00000000E+00
 Reciprocal Space Part
 -0.11160074E+03 -0.11080651E+03 -0.10843609E+03 -0.10452607E+03 -0.99136710E+02
 -0.92350819E+02 -0.84272253E+02 -0.75024038E+02 -0.64746144E+02 -0.53592973E+02
 -0.41730602E+02 -0.29333844E+02 -0.16583177E+02 -0.36616116E+01  0.92484483E+01
  0.21968283E+02  0.34325820E+02  0.46158427E+02  0.57315470E+02  0.67660614E+02
  0.77073799E+02  0.85452879E+02  0.92714891E+02  0.98796935E+02  0.10365666E+03
  0.10727237E+03  0.10964269E+03  0.11078596E+03  0.11073916E+03  0.10955661E+03
  0.10730838E+03  0.10407837E+03  0.99962334E+02  0.95065636E+02  0.89500976E+02
  0.83386037E+02  0.76841147E+02  0.69986985E+02  0.62942378E+02  0.55822237E+02
  0.48735664E+02  0.41784265E+02  0.35060690E+02  0.28647427E+02  0.22615858E+02
  0.17025591E+02  0.11924066E+02  0.73464198E+01  0.33156255E+01 -0.15713979E+00
 -0.30718984E+01 -0.54390808E+01 -0.72785643E+01 -0.86185738E+01 -0.94944753E+01
 -0.99474957E+01 -0.10023402E+02 -0.97711720E+01 -0.92416852E+01 -0.84864668E+01
 -0.75565058E+01 -0.65011720E+01 -0.53672507E+01 -0.41981101E+01 -0.30330109E+01
 -0.19065672E+01 -0.84835936E+00  0.11730131E+00  0.97146117E+00  0.17004744E+01
  0.22958258E+01  0.27538401E+01  0.30752928E+01  0.32649410E+01  0.33309906E+01
  0.32845198E+01  0.31388768E+01  0.29090693E+01  0.26111629E+01  0.22617043E+01
  0.18771819E+01  0.14735370E+01  0.10657336E+01  0.66739549E+00  0.29051418E+00
 -0.54768353E-01 -0.36030325E+00 -0.62000550E+00 -0.82985602E+00 -0.98784050E+00
 -0.10938318E+01 -0.11494243E+01 -0.11577281E+01 -0.11231342E+01 -0.10510581E+01
 -0.94767306E+00 -0.81964149E+00 -0.67385252E+00 -0.51717445E+00 -0.35622792E+00
 Real Space Part
  0.53358436E+03  0.53321404E+03  0.53210424E+03  0.53025858E+03  0.52768301E+03
  0.52438580E+03  0.52037749E+03  0.51567078E+03  0.51028046E+03  0.50422328E+03
  0.49751786E+03  0.49018452E+03  0.48224517E+03  0.47372318E+03  0.46464317E+03
  0.45503094E+03  0.44491327E+03  0.43431777E+03  0.42327277E+03  0.41180715E+03
  0.39995024E+03  0.38773164E+03  0.37518117E+03  0.36232874E+03  0.34920423E+03
  0.33583744E+03  0.32225801E+03  0.30849534E+03  0.29457857E+03  0.28053651E+03
  0.26639762E+03  0.25219000E+03  0.23794137E+03  0.22367907E+03  0.20943007E+03
  0.19522094E+03  0.18107795E+03  0.16702698E+03  0.15309364E+03  0.13930323E+03
  0.12568080E+03  0.11225116E+03  0.99038866E+02  0.86068306E+02  0.73363655E+02
  0.60948897E+02  0.48847824E+02  0.37084016E+02  0.25680821E+02  0.14661318E+02
  0.40482635E+01 -0.61359662E+01 -0.15869461E+02 -0.25130870E+02 -0.33899513E+02
 -0.42155516E+02 -0.49879953E+02 -0.57055015E+02 -0.63664190E+02 -0.69692462E+02
 -0.75126520E+02 -0.79954984E+02 -0.84168639E+02 -0.87760669E+02 -0.90726908E+02
 -0.93066070E+02 -0.94779991E+02 -0.95873844E+02 -0.96356346E+02 -0.96239931E+02
 -0.95540902E+02 -0.94279539E+02 -0.92480162E+02 -0.90171145E+02 -0.87384877E+02
 -0.84157662E+02 -0.80529550E+02 -0.76544098E+02 -0.72248091E+02 -0.67691147E+02
 -0.62925307E+02 -0.58004538E+02 -0.52984182E+02 -0.47920380E+02 -0.42869431E+02
 -0.37887153E+02 -0.33028212E+02 -0.28345462E+02 -0.23889293E+02 -0.19707001E+02
 -0.15842206E+02 -0.12334319E+02 -0.92180442E+01 -0.65230017E+01 -0.42733596E+01
 -0.24876586E+01 -0.11785958E+01 -0.35095468E+00 -0.16739862E-01  0.00000000E+00
 Non local Part
           1           2   1.13629494093598     
   2.29375916931652        3.13456334571211        3.13456334571211     
   4.30026666293712     
 Reciprocal Space Part
  0.00000000E+00  0.34213815E+01  0.67636442E+01  0.99492965E+01  0.12904066E+02
  0.15558420E+02  0.17848986E+02  0.19719838E+02  0.21123618E+02  0.22022477E+02
  0.22388813E+02  0.22205783E+02  0.21467594E+02  0.20179557E+02  0.18357906E+02
  0.16029393E+02  0.13230667E+02  0.10007450E+02  0.64135338E+01  0.25096188E+01
 -0.16379730E+01 -0.59586899E+01 -0.10379209E+02 -0.14824930E+02 -0.19221473E+02
 -0.23496148E+02 -0.27579362E+02 -0.31405936E+02 -0.34916306E+02 -0.38057585E+02
 -0.40784459E+02 -0.43059913E+02 -0.44855765E+02 -0.46152999E+02 -0.46941912E+02
 -0.47222054E+02 -0.47001977E+02 -0.46298815E+02 -0.45137688E+02 -0.43550957E+02
 -0.41577366E+02 -0.39261058E+02 -0.36650531E+02 -0.33797525E+02 -0.30755890E+02
 -0.27580447E+02 -0.24325876E+02 -0.21045641E+02 -0.17791000E+02 -0.14610086E+02
 -0.11547106E+02 -0.86416534E+01 -0.59281473E+01 -0.34354148E+01 -0.11864086E+01
  0.80193350E+00  0.25186917E+01  0.39588366E+01  0.51229797E+01  0.60170133E+01
  0.66516537E+01  0.70419034E+01  0.72064477E+01  0.71670054E+01  0.69476486E+01
  0.65741111E+01  0.60731020E+01  0.54716401E+01  0.47964242E+01  0.40732523E+01
  0.33265007E+01  0.25786726E+01  0.18500227E+01  0.11582618E+01  0.51834498E+00
 -0.57657300E-01 -0.56060769E+00 -0.98427311E+00 -0.13252251E+01 -0.15826761E+01
 -0.17582608E+01 -0.18557714E+01 -0.18808569E+01 -0.18406976E+01 -0.17436644E+01
 -0.15989735E+01 -0.14163455E+01 -0.12056797E+01 -0.97674853E+00 -0.73892248E+00
 -0.50092779E+00 -0.27064366E+00 -0.54940504E-01  0.14043861E+00  0.31095339E+00
  0.45329955E+00  0.56540205E+00  0.64637161E+00  0.69642847E+00  0.71679818E+00
 Real Space Part
  0.00000000E+00 -0.68347144E+01 -0.13655621E+02 -0.20448859E+02 -0.27200458E+02
 -0.33896295E+02 -0.40522045E+02 -0.47063146E+02 -0.53504772E+02 -0.59831808E+02
 -0.66028845E+02 -0.72080180E+02 -0.77969829E+02 -0.83681552E+02 -0.89198888E+02
 -0.94505211E+02 -0.99583783E+02 -0.10441783E+03 -0.10899062E+03 -0.11328557E+03
 -0.11728631E+03 -0.12097684E+03 -0.12434161E+03 -0.12736564E+03 -0.13003467E+03
 -0.13233524E+03 -0.13425485E+03 -0.13578210E+03 -0.13690676E+03 -0.13761995E+03
 -0.13791423E+03 -0.13778370E+03 -0.13722416E+03 -0.13623317E+03 -0.13481013E+03
 -0.13295643E+03 -0.13067548E+03 -0.12797278E+03 -0.12485599E+03 -0.12133498E+03
 -0.11742185E+03 -0.11313097E+03 -0.10847896E+03 -0.10348472E+03 -0.98169392E+02
 -0.92556304E+02 -0.86670950E+02 -0.80540900E+02 -0.74195716E+02 -0.67666842E+02
 -0.60987474E+02 -0.54192412E+02 -0.47317888E+02 -0.40401372E+02 -0.33481353E+02
 -0.26597099E+02 -0.19788397E+02 -0.13095261E+02 -0.65576245E+01 -0.21501225E+00
  0.58938125E+01  0.11731215E+02  0.17261072E+02  0.22449163E+02  0.27263574E+02
  0.31675099E+02  0.35657636E+02  0.39188580E+02  0.42249189E+02  0.44824934E+02
  0.46905808E+02  0.48486604E+02  0.49567131E+02  0.50152374E+02  0.50252599E+02
  0.49883380E+02  0.49065539E+02  0.47825005E+02  0.46192613E+02  0.44203766E+02
  0.41898065E+02  0.39318820E+02  0.36512492E+02  0.33528090E+02  0.30416459E+02
  0.27229586E+02  0.24019808E+02  0.20839056E+02  0.17738056E+02  0.14765563E+02
  0.11967626E+02  0.93868825E+01  0.70619165E+01  0.50267026E+01  0.33100930E+01
  0.19354652E+01  0.92038999E+00  0.27509474E+00  0.11743117E-01  0.00000000E+00
 Reciprocal Space Part
  0.00000000E+00 -0.21234046E+01 -0.41939672E+01 -0.61599523E+01 -0.79718132E+01
 -0.95832265E+01 -0.10952056E+02 -0.12041224E+02 -0.12819475E+02 -0.13262008E+02
 -0.13350976E+02 -0.13075827E+02 -0.12433497E+02 -0.11428435E+02 -0.10072472E+02
 -0.83845407E+01 -0.63902369E+01 -0.41212520E+01 -0.16146795E+01  0.10877837E+01
  0.39407247E+01  0.68959685E+01  0.99035780E+01  0.12912877E+02  0.15873475E+02
  0.18736266E+02  0.21454391E+02  0.23984130E+02  0.26285719E+02  0.28324061E+02
  0.30069336E+02  0.31497477E+02  0.32590524E+02  0.33336841E+02  0.33731194E+02
  0.33774694E+02  0.33474613E+02  0.32844074E+02  0.31901626E+02  0.30670725E+02
  0.29179117E+02  0.27458166E+02  0.25542111E+02  0.23467306E+02  0.21271424E+02
  0.18992676E+02  0.16669040E+02  0.14337527E+02  0.12033495E+02  0.97900242E+01
  0.76373733E+01  0.56025094E+01  0.37087358E+01  0.19754122E+01  0.41777294E+00
 -0.95315714E+00 -0.21305520E+01 -0.31116828E+01 -0.38977326E+01 -0.44935349E+01
 -0.49072458E+01 -0.51499616E+01 -0.52352912E+01 -0.51788987E+01 -0.49980251E+01
 -0.47110042E+01 -0.43367827E+01 -0.38944569E+01 -0.34028349E+01 -0.28800342E+01
 -0.23431223E+01 -0.18078062E+01 -0.12881758E+01 -0.79650336E+00 -0.34310213E+00
  0.63757725E-01  0.41787631E+00  0.71509778E+00  0.95323470E+00  0.11319482E+01
  0.12525897E+01  0.13180121E+01  0.13323547E+01  0.13008135E+01  0.12293995E+01
  0.11246957E+01  0.99361800E+00  0.84318584E+00  0.68030954E+00  0.51159757E+00
  0.34318861E+00  0.18061082E+00  0.28670499E-01 -0.10862896E+00 -0.22813766E+00
 -0.32758028E+00 -0.40554905E+00 -0.46147113E+00 -0.49555311E+00 -0.50870615E+00
 Real Space Part
  0.00000000E+00  0.47024439E+01  0.93967067E+01  0.14074552E+02  0.18727631E+02
  0.23347438E+02  0.27925257E+02  0.32452120E+02  0.36918781E+02  0.41315678E+02
  0.45632926E+02  0.49860300E+02  0.53987242E+02  0.58002870E+02  0.61896003E+02
  0.65655189E+02  0.69268751E+02  0.72724836E+02  0.76011479E+02  0.79116669E+02
  0.82028426E+02  0.84734884E+02  0.87224380E+02  0.89485548E+02  0.91507412E+02
  0.93279489E+02  0.94791884E+02  0.96035397E+02  0.97001618E+02  0.97683028E+02
  0.98073094E+02  0.98166361E+02  0.97958541E+02  0.97446597E+02  0.96628821E+02
  0.95504904E+02  0.94076002E+02  0.92344793E+02  0.90315526E+02  0.87994063E+02
  0.85387909E+02  0.82506235E+02  0.79359889E+02  0.75961396E+02  0.72324950E+02
  0.68466393E+02  0.64403175E+02  0.60154313E+02  0.55740322E+02  0.51183150E+02
  0.46506075E+02  0.41733611E+02  0.36891376E+02  0.32005961E+02  0.27104769E+02
  0.22215846E+02  0.17367692E+02  0.12589052E+02  0.79086942E+01  0.33551739E+01
 -0.10434220E+01 -0.52597399E+01 -0.92674361E+01 -0.13041462E+02 -0.16558354E+02
 -0.19796527E+02 -0.22736563E+02 -0.25361497E+02 -0.27657083E+02 -0.29612055E+02
 -0.31218348E+02 -0.32471311E+02 -0.33369864E+02 -0.33916622E+02 -0.34117979E+02
 -0.33984135E+02 -0.33529059E+02 -0.32770399E+02 -0.31729346E+02 -0.30430403E+02
 -0.28901119E+02 -0.27171757E+02 -0.25274895E+02 -0.23245003E+02 -0.21117936E+02
 -0.18930447E+02 -0.16719617E+02 -0.14522322E+02 -0.12374660E+02 -0.10311403E+02
 -0.83654703E+01 -0.65674237E+01 -0.49450018E+01 -0.35227210E+01 -0.23215029E+01
 -0.13584161E+01 -0.64643333E+00 -0.19334234E+00 -0.82513639E-02  0.00000000E+00
 Non local Part
           2           1   1.13629494093598     
   4.03316078884357     
 Reciprocal Space Part
  0.00000000E+00  0.17326636E-01  0.68978445E-01  0.15397766E+00  0.27071629E+00
  0.41698809E+00  0.59003233E+00  0.78658840E+00  0.10029602E+01  0.12350887E+01
  0.14786315E+01  0.17290472E+01  0.19816832E+01  0.22318650E+01  0.24749850E+01
  0.27065892E+01  0.29224595E+01  0.31186908E+01  0.32917608E+01  0.34385907E+01
  0.35565972E+01  0.36437333E+01  0.36985174E+01  0.37200517E+01  0.37080281E+01
  0.36627224E+01  0.35849768E+01  0.34761728E+01  0.33381923E+01  0.31733711E+01
  0.29844440E+01  0.27744836E+01  0.25468340E+01  0.23050409E+01  0.20527801E+01
  0.17937852E+01  0.15317763E+01  0.12703922E+01  0.10131254E+01  0.76326265E+00
  0.52383244E+00  0.29755853E+00  0.86822087E-01 -0.10636794E+00 -0.28039581E+00
 -0.43405111E+00 -0.56653209E+00 -0.67744064E+00 -0.76676914E+00 -0.83488008E+00
 -0.88247893E+00 -0.91058142E+00 -0.92047597E+00 -0.91368242E+00 -0.89190824E+00
 -0.85700308E+00 -0.81091296E+00 -0.75563502E+00 -0.69317387E+00 -0.62550039E+00
 -0.55451381E+00 -0.48200772E+00 -0.40964059E+00 -0.33891119E+00 -0.27113922E+00
 -0.20745124E+00 -0.14877194E+00 -0.95820667E-01 -0.49112811E-01 -0.89659134E-02
  0.24490129E-01  0.51299186E-01  0.71661960E-01  0.85916605E-01  0.94517543E-01
  0.98013151E-01  0.97022917E-01  0.92214725E-01  0.84282799E-01  0.73926842E-01
  0.61832827E-01  0.48655792E-01  0.35004969E-01  0.21431444E-01  0.84184920E-02
 -0.36253610E-02 -0.14370577E-01 -0.23568236E-01 -0.31049221E-01 -0.36721180E-01
 -0.40563522E-01 -0.42620756E-01 -0.42994487E-01 -0.41834430E-01 -0.39328764E-01
 -0.35694182E-01 -0.31165949E-01 -0.25988268E-01 -0.20405236E-01 -0.14652590E-01
 Real Space Part
  0.00000000E+00 -0.61772341E-02 -0.24610304E-01 -0.55004730E-01 -0.96874413E-01
 -0.14954860E+00 -0.21218143E+00 -0.28376398E+00 -0.36313842E+00 -0.44901424E+00
 -0.53998611E+00 -0.63455313E+00 -0.73113913E+00 -0.82811374E+00 -0.92381384E+00
 -0.10165651E+01 -0.11047032E+01 -0.11865946E+01 -0.12606569E+01 -0.13253769E+01
 -0.13793292E+01 -0.14211917E+01 -0.14497605E+01 -0.14639627E+01 -0.14628672E+01
 -0.14456945E+01 -0.14118233E+01 -0.13607960E+01 -0.12923226E+01 -0.12062820E+01
 -0.11027221E+01 -0.98185811E+00 -0.84406929E+00 -0.68989414E+00 -0.52002449E+00
 -0.33529817E+00 -0.13669069E+00  0.74693986E-01  0.29763365E+00  0.53079861E+00
  0.77276319E+00  0.10220176E+01  0.12769805E+01  0.15360111E+01  0.17974227E+01
  0.20594952E+01  0.23204881E+01  0.25786542E+01  0.28322517E+01  0.30795579E+01
  0.33188816E+01  0.35485755E+01  0.37670491E+01  0.39727803E+01  0.41643273E+01
  0.43403402E+01  0.44995717E+01  0.46408881E+01  0.47632791E+01  0.48658671E+01
  0.49479166E+01  0.50088419E+01  0.50482145E+01  0.50657696E+01  0.50614111E+01
  0.50352161E+01  0.49874376E+01  0.49185057E+01  0.48290279E+01  0.47197870E+01
  0.45917376E+01  0.44460003E+01  0.42838550E+01  0.41067302E+01  0.39161926E+01
  0.37139330E+01  0.35017505E+01  0.32815356E+01  0.30552512E+01  0.28249114E+01
  0.25925604E+01  0.23602494E+01  0.21300135E+01  0.19038483E+01  0.16836864E+01
  0.14713749E+01  0.12686540E+01  0.10771361E+01  0.89828830E+00  0.73341516E+00
  0.58364545E+00  0.44992099E+00  0.33298740E+00  0.23338989E+00  0.15146937E+00
  0.87365591E-01  0.41018721E-01  0.12103623E-01  0.59402406E-03  0.00000000E+00
 PAW radial sets
         367   1.08082277722336     
(5E20.12)                                
 augmentation charges (non sperical)
 -0.405301730270E+00 -0.463867481712E+00 -0.179745093209E+00 -0.260161862652E+00 -0.882275160110E-01
 -0.463867481712E+00 -0.530946659903E+00 -0.205066666076E+00 -0.296916356715E+00 -0.100282339103E+00
 -0.179745093209E+00 -0.205066666076E+00 -0.807080562124E-01 -0.115407596217E+00 -0.390360894281E-01
 -0.260161862652E+00 -0.296916356715E+00 -0.115407596217E+00 -0.165205108457E+00 -0.553938434358E-01
 -0.882275160110E-01 -0.100282339103E+00 -0.390360894281E-01 -0.553938434358E-01  0.988763150678E-02
 uccopancies in atom
  0.200000000360E+01  0.000000000000E+00  0.000000000000E+00  0.000000000000E+00  0.000000000000E+00
  0.000000000000E+00  0.000000000000E+00  0.000000000000E+00  0.000000000000E+00  0.000000000000E+00
  0.000000000000E+00  0.000000000000E+00  0.133333333602E+01  0.000000000000E+00  0.000000000000E+00
  0.000000000000E+00  0.000000000000E+00  0.000000000000E+00  0.000000000000E+00  0.000000000000E+00
  0.000000000000E+00  0.000000000000E+00  0.000000000000E+00  0.000000000000E+00  0.000000000000E+00
 grid
  0.498607011224E-04  0.514820467356E-04  0.531561144635E-04  0.548846186975E-04  0.566693295772E-04
  0.585120748024E-04  0.604147415052E-04  0.623792781826E-04  0.644076966918E-04  0.665020743107E-04
  0.686645558649E-04  0.708973559245E-04  0.732027610719E-04  0.755831322434E-04  0.780409071471E-04
  0.805786027592E-04  0.831988179019E-04  0.859042359045E-04  0.886976273512E-04  0.915818529192E-04
  0.945598663073E-04  0.976347172616E-04  0.100809554698E-03  0.104087629928E-03  0.107472299986E-03
  0.110967031071E-03  0.114575402093E-03  0.118301108338E-03  0.122147965256E-03  0.126119912364E-03
  0.130221017284E-03  0.134455479904E-03  0.138827636685E-03  0.143341965098E-03  0.148003088208E-03
  0.152815779414E-03  0.157784967332E-03  0.162915740844E-03  0.168213354311E-03  0.173683232952E-03
  0.179330978401E-03  0.185162374443E-03  0.191183392936E-03  0.197400199930E-03  0.203819161979E-03
  0.210446852660E-03  0.217290059307E-03  0.224355789964E-03  0.231651280554E-03  0.239184002299E-03
  0.246961669362E-03  0.254992246756E-03  0.263283958492E-03  0.271845296009E-03  0.280685026865E-03
  0.289812203715E-03  0.299236173587E-03  0.308966587449E-03  0.319013410095E-03  0.329386930350E-03
  0.340097771605E-03  0.351156902698E-03  0.362575649144E-03  0.374365704739E-03  0.386539143529E-03
  0.399108432179E-03  0.412086442740E-03  0.425486465828E-03  0.439322224237E-03  0.453607886995E-03
  0.468358083867E-03  0.483587920343E-03  0.499312993109E-03  0.515549406011E-03  0.532313786556E-03
  0.549623302934E-03  0.567495681603E-03  0.585949225440E-03  0.605002832487E-03  0.624676015302E-03
  0.644988920944E-03  0.665962351602E-03  0.687617785904E-03  0.709977400905E-03  0.733064094805E-03
  0.756901510397E-03  0.781514059277E-03  0.806926946845E-03  0.833166198120E-03  0.860258684387E-03
  0.888232150721E-03  0.917115244394E-03  0.946937544219E-03  0.977729590837E-03  0.100952291799E-02
  0.104235008484E-02  0.107624470925E-02  0.111124150229E-02  0.114737630374E-02  0.118468611878E-02
  0.122320915593E-02  0.126298486615E-02  0.130405398324E-02  0.134645856555E-02  0.139024203910E-02
  0.143544924198E-02  0.148212647033E-02  0.153032152569E-02  0.158008376402E-02  0.163146414620E-02
  0.168451529023E-02  0.173929152511E-02  0.179584894651E-02  0.185424547415E-02  0.191454091120E-02
  0.197679700543E-02  0.204107751254E-02  0.210744826139E-02  0.217597722141E-02  0.224673457225E-02
  0.231979277562E-02  0.239522664951E-02  0.247311344479E-02  0.255353292435E-02  0.263656744476E-02
  0.272230204064E-02  0.281082451169E-02  0.290222551266E-02  0.299659864616E-02  0.309404055853E-02
  0.319465103881E-02  0.329853312091E-02  0.340579318917E-02  0.351654108727E-02  0.363089023073E-02
  0.374895772307E-02  0.387086447572E-02  0.399673533184E-02  0.412669919420E-02  0.426088915714E-02
  0.439944264291E-02  0.454250154239E-02  0.469021236039E-02  0.484272636571E-02  0.500019974599E-02
  0.516279376776E-02  0.533067494149E-02  0.550401519218E-02  0.568299203539E-02  0.586778875905E-02
  0.605859461116E-02  0.625560499357E-02  0.645902166213E-02  0.666905293329E-02  0.688591389743E-02
  0.710982663912E-02  0.734102046458E-02  0.757973213648E-02  0.782620611644E-02  0.808069481535E-02
  0.834345885188E-02  0.861476731936E-02  0.889489806137E-02  0.918413795627E-02  0.948278321098E-02
  0.979113966435E-02  0.101095231003E-01  0.104382595714E-01  0.107776857324E-01  0.111281491853E-01
  0.114900088355E-01  0.118636352588E-01  0.122494110812E-01  0.126477313711E-01  0.130590040430E-01
  0.134836502763E-01  0.139221049457E-01  0.143748170671E-01  0.148422502573E-01  0.153248832088E-01
  0.158232101799E-01  0.163377415008E-01  0.168690040967E-01  0.174175420270E-01  0.179839170422E-01
  0.185687091600E-01  0.191725172587E-01  0.197959596903E-01  0.204396749146E-01  0.211043221521E-01
  0.217905820596E-01  0.224991574273E-01  0.232307738983E-01  0.239861807118E-01  0.247661514704E-01
  0.255714849322E-01  0.264030058291E-01  0.272615657112E-01  0.281480438189E-01  0.290633479831E-01
  0.300084155553E-01  0.309842143673E-01  0.319917437224E-01  0.330320354186E-01  0.341061548056E-01
  0.352152018754E-01  0.363603123892E-01  0.375426590402E-01  0.387634526547E-01  0.400239434321E-01
  0.413254222250E-01  0.426692218614E-01  0.440567185096E-01  0.454893330875E-01  0.469685327175E-01
  0.484958322293E-01  0.500727957111E-01  0.517010381113E-01  0.533822268924E-01  0.551180837385E-01
  0.569103863189E-01  0.587609701079E-01  0.606717302652E-01  0.626446235759E-01  0.646816704554E-01
  0.667849570176E-01  0.689566372117E-01  0.711989350281E-01  0.735141467755E-01  0.759046434333E-01
  0.783728730788E-01  0.809213633950E-01  0.835527242585E-01  0.862696504128E-01  0.890749242278E-01
  0.919714185489E-01  0.949620996395E-01  0.980500302183E-01  0.101238372596E+00  0.104530391914E+00
  0.107929459488E+00  0.111439056259E+00  0.115062776362E+00  0.118804330803E+00  0.122667551260E+00
  0.126656394009E+00  0.130774943973E+00  0.135027418908E+00  0.139418173718E+00  0.143951704922E+00
  0.148632655250E+00  0.153465818406E+00  0.158456143970E+00  0.163608742472E+00  0.168928890623E+00
  0.174422036721E+00  0.180093806225E+00  0.185950007524E+00  0.191996637880E+00  0.198239889571E+00
  0.204686156232E+00  0.211342039403E+00  0.218214355291E+00  0.225310141747E+00  0.232636665476E+00
  0.240201429480E+00  0.248012180737E+00  0.256076918140E+00  0.264403900684E+00  0.273001655927E+00
  0.281878988722E+00  0.291044990234E+00  0.300509047248E+00  0.310280851786E+00  0.320370411030E+00
  0.330788057570E+00  0.341544459987E+00  0.352650633776E+00  0.364117952631E+00  0.375958160087E+00
  0.388183381553E+00  0.400806136722E+00  0.413839352399E+00  0.427296375736E+00  0.441190987901E+00
  0.455537418190E+00  0.470350358603E+00  0.485644978884E+00  0.501436942061E+00  0.517742420485E+00
  0.534578112390E+00  0.551961258995E+00  0.569909662163E+00  0.588441702626E+00  0.607576358813E+00
  0.627333226284E+00  0.647732537797E+00  0.668795184032E+00  0.690542734976E+00  0.712997462024E+00
  0.736182360778E+00  0.760121174600E+00  0.784838418928E+00  0.810359406379E+00  0.836710272675E+00
  0.863918003406E+00  0.892010461665E+00  0.921016416584E+00  0.950965572796E+00  0.981888600855E+00
  0.101381716864E+01  0.104678397380E+01  0.108082277722E+01  0.111596843762E+01  0.115225694721E+01
  0.118972546860E+01  0.122841237284E+01  0.126835727869E+01  0.130960109323E+01  0.135218605372E+01
  0.139615577090E+01  0.144155527358E+01  0.148843105484E+01  0.153683111956E+01  0.158680503365E+01
  0.163840397475E+01  0.169168078469E+01  0.174669002358E+01  0.180348802569E+01  0.186213295713E+01
  0.192268487544E+01  0.198520579108E+01  0.204975973092E+01  0.211641280385E+01  0.218523326842E+01
  0.225629160282E+01  0.232966057699E+01  0.240541532716E+01  0.248363343282E+01  0.256439499615E+01
  0.264778272404E+01  0.273388201281E+01  0.282278103567E+01  0.291457083297E+01  0.300934540550E+01
  0.310720181068E+01  0.320824026205E+01  0.331256423179E+01  0.342028055677E+01  0.353149954792E+01
  0.364633510320E+01  0.376490482427E+01  0.388733013686E+01  0.401373641521E+01  0.414425311038E+01
  0.427901388289E+01  0.441815673952E+01  0.456182417474E+01  0.471016331654E+01  0.486332607718E+01
  0.502146930869E+01  0.518475496358E+01  0.535335026061E+01  0.552742785611E+01  0.570716602075E+01
  0.589274882210E+01  0.608436631319E+01
 aepotential
  0.119609740105E+05  0.121070326365E+05  0.122364822335E+05  0.123483481657E+05  0.124417636288E+05
  0.125159779763E+05  0.125703615470E+05  0.126044204670E+05  0.126178038235E+05  0.126103112621E+05
  0.125818970890E+05  0.125326704386E+05  0.124628980538E+05  0.123730016771E+05  0.122635488832E+05
  0.121352476494E+05  0.119889406261E+05  0.118255908641E+05  0.116462588289E+05  0.114521054412E+05
  0.112443691324E+05  0.110243385370E+05  0.107933562315E+05  0.105527836156E+05  0.103039953940E+05
  0.100483606746E+05  0.978722969306E+04  0.952191469691E+04  0.925369011900E+04  0.898376608628E+04
  0.871329353529E+04  0.844334770869E+04  0.817492688406E+04  0.790894689475E+04  0.764623867542E+04
  0.738754697159E+04  0.713353103312E+04  0.688476539048E+04  0.664174263538E+04  0.640487641924E+04
  0.617450542139E+04  0.595089790540E+04  0.573425652443E+04  0.552472352984E+04  0.532238606222E+04
  0.512728151917E+04  0.493940285353E+04  0.475870374984E+04  0.458510360353E+04  0.441849225413E+04
  0.425873443525E+04  0.410567391410E+04  0.395913729507E+04  0.381893750199E+04  0.368487693730E+04
  0.355675024799E+04  0.343434681031E+04  0.331745306675E+04  0.320585418595E+04  0.309933590617E+04
  0.299768583514E+04  0.290069469675E+04  0.280815709109E+04  0.271987263361E+04  0.263564624620E+04
  0.255528882770E+04  0.247861754732E+04  0.240545611399E+04  0.233563500517E+04  0.226899129832E+04
  0.220536906372E+04  0.214461894384E+04  0.208659836617E+04  0.203117116459E+04  0.197820762907E+04
  0.192758421339E+04  0.187918330496E+04  0.183289316740E+04  0.178860751561E+04  0.174622547321E+04
  0.170565123977E+04  0.166679387477E+04  0.162956712783E+04  0.159388913742E+04  0.155968229854E+04
  0.152687295694E+04  0.149539131517E+04  0.146517113125E+04  0.143614960309E+04  0.140826714320E+04
  0.138146724137E+04  0.135569624565E+04  0.133090328853E+04  0.130704003326E+04  0.128406061646E+04
  0.126192146457E+04  0.124058119752E+04  0.122000047748E+04  0.120014190289E+04  0.118096993904E+04
  0.116245070947E+04  0.114455206430E+04  0.112724331172E+04  0.111049525863E+04  0.109428008075E+04
  0.107857124288E+04  0.106334343301E+04  0.104857250099E+04  0.103423538552E+04  0.102031005579E+04
  0.100677546428E+04  0.993611464249E+03  0.980798796731E+03  0.968319018288E+03  0.956154462794E+03
  0.944288197584E+03  0.932703987846E+03  0.921386250306E+03  0.910320034280E+03  0.899490967002E+03
  0.888885240259E+03  0.878489571817E+03  0.868291180391E+03  0.858277759652E+03  0.848437454757E+03
  0.838758836207E+03  0.829230883385E+03  0.819842961154E+03  0.810584800920E+03  0.801446485362E+03
  0.792418430943E+03  0.783491372117E+03  0.774656348594E+03  0.765904691590E+03  0.757228010610E+03
  0.748618187700E+03  0.740067357380E+03  0.731567909025E+03  0.723112470383E+03  0.714693902498E+03
  0.706305294771E+03  0.697939957739E+03  0.689591418769E+03  0.681253415612E+03  0.672919897186E+03
  0.664585018928E+03  0.656243139532E+03  0.647888823651E+03  0.639516837880E+03  0.631122155719E+03
  0.622699954171E+03  0.614245621449E+03  0.605754755675E+03  0.597223171575E+03  0.588646905704E+03
  0.580022220479E+03  0.571345613389E+03  0.562613824520E+03  0.553823844819E+03  0.544972928578E+03
  0.536058603445E+03  0.527078684990E+03  0.518031290691E+03  0.508914856940E+03  0.499728156987E+03
  0.490470321391E+03  0.481140860077E+03  0.471739687482E+03  0.462267149155E+03  0.452724051853E+03
  0.443111696236E+03  0.433431912134E+03  0.423687097229E+03  0.413880258330E+03  0.404015055655E+03
  0.394095849204E+03  0.384127746847E+03  0.374116653058E+03  0.364069316718E+03  0.353993375557E+03
  0.343897394857E+03  0.333790896235E+03  0.323684371610E+03  0.313589276764E+03  0.303517997339E+03
  0.293483779479E+03  0.283500617247E+03  0.273583089273E+03  0.263746139230E+03  0.254004799921E+03
  0.244373867700E+03  0.234867546962E+03  0.225499102342E+03  0.216280579259E+03  0.207222683339E+03
  0.198334938387E+03  0.189626267045E+03  0.181106139683E+03  0.172786397289E+03  0.164683743051E+03
  0.156822696682E+03  0.149238512659E+03  0.141979276083E+03  0.135106030725E+03  0.128690094443E+03
  0.122806845573E+03  0.117526444388E+03  0.112902891113E+03  0.108963676977E+03  0.105702388745E+03
  0.103075953483E+03  0.101007112533E+03  0.993916714820E+02  0.981092936350E+02  0.970359575872E+02
  0.960556741682E+02  0.950690870108E+02  0.939975680292E+02  0.927830316949E+02  0.913850000989E+02
  0.897767604845E+02  0.879418989602E+02  0.858716939359E+02  0.835632827721E+02  0.810183425304E+02
  0.782420599708E+02  0.752422936752E+02  0.720289030651E+02  0.686132530404E+02  0.650078965712E+02
  0.612264237010E+02  0.572834514557E+02  0.531947214308E+02  0.489772703432E+02  0.446496349078E+02
  0.402320451758E+02  0.357465550807E+02  0.312170411572E+02  0.266689950661E+02  0.221290324283E+02
  0.176240761474E+02  0.131802547400E+02  0.882172716510E+01  0.456991306650E+01  0.443935820359E+00
 -0.353667196973E+01 -0.734613941197E+01 -0.109437654074E+02 -0.142650264686E+02 -0.172180880174E+02
 -0.196930607337E+02 -0.215885892351E+02 -0.228523539371E+02 -0.235209582102E+02 -0.237327685910E+02
 -0.236917710451E+02 -0.235940372730E+02 -0.235668826329E+02 -0.236592427512E+02 -0.238716831374E+02
 -0.241908341153E+02 -0.246084963930E+02 -0.251257616040E+02 -0.257495373604E+02 -0.264875244555E+02
 -0.273446310464E+02 -0.283215099218E+02 -0.294147254703E+02 -0.306177270591E+02 -0.319219838906E+02
 -0.333179270414E+02 -0.347955910069E+02 -0.363449781368E+02 -0.379562144387E+02 -0.396195694669E+02
 -0.413253906925E+02 -0.430639946520E+02 -0.448255300154E+02 -0.465998403746E+02 -0.483763288314E+02
 -0.501438525975E+02 -0.518906791370E+02 -0.536044869621E+02 -0.552725349392E+02 -0.568819441656E+02
 -0.584201607013E+02 -0.598755636752E+02 -0.612381188181E+02 -0.624999356012E+02 -0.636554338431E+02
 -0.647008238333E+02 -0.656326405276E+02 -0.664453881568E+02 -0.671290241158E+02 -0.676678996772E+02
 -0.680431536028E+02 -0.682392792278E+02 -0.682524503056E+02 -0.680954889488E+02 -0.677955136255E+02
 -0.673853815155E+02 -0.668944677303E+02 -0.663436194160E+02 -0.657448787186E+02 -0.651040859383E+02
 -0.644237265591E+02 -0.637049405940E+02 -0.629485813780E+02 -0.621556460862E+02 -0.613273991320E+02
 -0.604653910706E+02 -0.595714488689E+02 -0.586476747490E+02 -0.576964273476E+02 -0.567203097849E+02
 -0.557221320691E+02 -0.547048730026E+02 -0.536716054399E+02 -0.526254370276E+02 -0.515694285827E+02
 -0.505065032067E+02 -0.494393638705E+02 -0.483704080284E+02 -0.473016587724E+02 -0.462347231358E+02
 -0.451707827604E+02 -0.441106334427E+02 -0.430547715121E+02 -0.420035218311E+02 -0.409571910084E+02
 -0.399162245785E+02 -0.388813435855E+02 -0.378536420570E+02 -0.368346334192E+02 -0.358262425738E+02
 -0.348307470788E+02 -0.338506750682E+02 -0.328886696118E+02 -0.319473305437E+02 -0.310290465533E+02
 -0.301358329808E+02 -0.292691932192E+02 -0.284300220720E+02 -0.276185657803E+02 -0.268344453118E+02
 -0.260767384961E+02 -0.253441060550E+02 -0.246349399225E+02 -0.239475112687E+02 -0.232800998261E+02
 -0.226310932649E+02 -0.219990528767E+02 -0.213827477880E+02 -0.207811635135E+02 -0.201934920111E+02
 -0.196191101231E+02 -0.190575521142E+02 -0.185084805263E+02 -0.179716581486E+02 -0.174469227304E+02
 -0.169341651959E+02 -0.164333115416E+02 -0.159443082399E+02 -0.154671107878E+02 -0.150016749623E+02
 -0.145479503429E+02 -0.141058756896E+02
 core charge-density
  0.233347115022E-02  0.248219799624E-02  0.264038593777E-02  0.280863503225E-02  0.298758321888E-02
  0.317790869285E-02  0.338033242698E-02  0.359562084926E-02  0.382458868615E-02  0.406810198142E-02
  0.432708130139E-02  0.460250513757E-02  0.489541351888E-02  0.520691184584E-02  0.553817496015E-02
  0.589045146379E-02  0.626506830249E-02  0.666343562928E-02  0.708705196498E-02  0.753750967292E-02
  0.801650076673E-02  0.852582307081E-02  0.906738675393E-02  0.964322125829E-02  0.102554826466E-01
  0.109064613922E-01  0.115985906369E-01  0.123344549445E-01  0.131167995787E-01  0.139485403337E-01
  0.148327739515E-01  0.157727891574E-01  0.167720783496E-01  0.178343499791E-01  0.189635416595E-01
  0.201638340464E-01  0.214396655298E-01  0.227957477835E-01  0.242370822199E-01  0.257689773978E-01
  0.273970674358E-01  0.291273314856E-01  0.309661143201E-01  0.329201480978E-01  0.349965753630E-01
  0.372029733469E-01  0.395473796379E-01  0.420383192887E-01  0.446848334353E-01  0.474965095020E-01
  0.504835130714E-01  0.536566215009E-01  0.570272593702E-01  0.606075358466E-01  0.644102840581E-01
  0.684491025681E-01  0.727383990456E-01  0.772934362307E-01  0.821303802948E-01  0.872663516984E-01
  0.927194786522E-01  0.985089532868E-01  0.104655090641E+00  0.111179390573E+00  0.118104602717E+00
  0.125454794572E+00  0.133255422862E+00  0.141533408249E+00  0.150317213528E+00  0.159636925386E+00
  0.169524339853E+00  0.180013051514E+00  0.191138546590E+00  0.202938299969E+00  0.215451876258E+00
  0.228721034918E+00  0.242789839553E+00  0.257704771367E+00  0.273514846831E+00  0.290271739563E+00
  0.308029906391E+00  0.326846717578E+00  0.346782591133E+00  0.367901131101E+00  0.390269269725E+00
  0.413957413278E+00  0.439039591382E+00  0.465593609536E+00  0.493701204541E+00  0.523448202464E+00
  0.554924678687E+00  0.588225119556E+00  0.623448585031E+00  0.660698871681E+00  0.700084675265E+00
  0.741719752033E+00  0.785723077791E+00  0.832219003635E+00  0.881337407151E+00  0.933213837736E+00
  0.987989654521E+00  0.104581215529E+01  0.110683469451E+01  0.117121678856E+01  0.123912420585E+01
  0.131072903956E+01  0.138620976034E+01  0.146575124607E+01  0.154954478579E+01  0.163778805434E+01
  0.173068505418E+01  0.182844602062E+01  0.193128728635E+01  0.203943110088E+01  0.215310540022E+01
  0.227254352198E+01  0.239798386064E+01  0.252966945744E+01  0.266784751928E+01  0.281276886066E+01
  0.296468726232E+01  0.312385874026E+01  0.329054071859E+01  0.346499109940E+01  0.364746722289E+01
  0.383822471088E+01  0.403751618701E+01  0.424558986674E+01  0.446268801084E+01  0.468904523609E+01
  0.492488667747E+01  0.517042599658E+01  0.542586323191E+01  0.569138248711E+01  0.596714945500E+01
  0.625330877573E+01  0.654998122939E+01  0.685726076496E+01  0.717521136941E+01  0.750386378319E+01
  0.784321207062E+01  0.819321005691E+01  0.855376764640E+01  0.892474704034E+01  0.930595887631E+01
  0.969715831566E+01  0.100980411097E+02  0.105082396806E+02  0.109273192578E+02  0.113547741162E+02
  0.117900239690E+02  0.122324105720E+02  0.126811946049E+02  0.131355528988E+02  0.135945760871E+02
  0.140572667608E+02  0.145225382181E+02  0.149892138990E+02  0.154560276055E+02  0.159216246059E+02
  0.163845637305E+02  0.168433205626E+02  0.172962918320E+02  0.177418011150E+02  0.181781059414E+02
  0.186034064031E+02  0.190158553504E+02  0.194135702492E+02  0.197946467597E+02  0.201571740754E+02
  0.204992520430E+02  0.208190100537E+02  0.211146276701E+02  0.213843569146E+02  0.216265461107E+02
  0.218396651232E+02  0.220223317977E+02  0.221733393525E+02  0.222916844201E+02  0.223765953837E+02
  0.224275605975E+02  0.224443560244E+02  0.224270717703E+02  0.223761369410E+02  0.222923422048E+02
  0.221768593984E+02  0.220312574843E+02  0.218575141474E+02  0.216580223079E+02  0.214355908347E+02
  0.211934387711E+02  0.209351824232E+02  0.206648147327E+02  0.203866764393E+02  0.201054186523E+02
  0.198259565880E+02  0.195534143876E+02  0.192930611134E+02  0.190502382259E+02  0.188302790603E+02
  0.186384210591E+02  0.184797117572E+02  0.183589097495E+02  0.182803822076E+02  0.182480005993E+02
  0.182650366224E+02  0.183340606484E+02  0.184568450624E+02  0.186342751407E+02  0.188662702278E+02
  0.191517180373E+02  0.194884248879E+02  0.198730845777E+02  0.203012683948E+02  0.207674384427E+02
  0.212649860378E+02  0.217862964193E+02  0.223228404368E+02  0.228652932591E+02  0.234036794942E+02
  0.239275434054E+02  0.244261421482E+02  0.248886591512E+02  0.253044339396E+02  0.256632039048E+02
  0.259553527736E+02  0.261721598751E+02  0.263060437590E+02  0.263507933081E+02  0.263017792516E+02
  0.261561389266E+02  0.259129272953E+02  0.255732276124E+02  0.251402157766E+02  0.246191732904E+02
  0.240174449061E+02  0.233443384454E+02  0.226109659094E+02  0.218300268524E+02  0.210155369823E+02
  0.201825070572E+02  0.193465792591E+02  0.185236302548E+02  0.177293519865E+02  0.169788227176E+02
  0.162860818706E+02  0.156637225784E+02  0.151225155530E+02  0.146710768219E+02  0.143155906635E+02
  0.140595967614E+02  0.139038503587E+02  0.138462633820E+02  0.138819332650E+02  0.140032683126E+02
  0.142002123084E+02  0.144605628812E+02  0.147703661753E+02  0.151143637760E+02  0.154764700788E+02
  0.158402640567E+02  0.161894822928E+02  0.165084994143E+02  0.167827803391E+02  0.169992880232E+02
  0.171468314101E+02  0.172163408970E+02  0.172010623507E+02  0.170966650590E+02  0.169012633456E+02
  0.166153556355E+02  0.162416882258E+02  0.157850538027E+02  0.152520367634E+02  0.146507186495E+02
  0.139903575061E+02  0.132810547683E+02  0.125334225221E+02  0.117582626680E+02  0.109662679595E+02
  0.101677529735E+02  0.937242114317E+01  0.858917231196E+01  0.782595265889E+01  0.708964819638E+01
  0.638602066149E+01  0.571968384476E+01  0.509411691599E+01  0.451170981162E+01  0.397383625717E+01
  0.348094789054E+01  0.303268317013E+01  0.262798456538E+01  0.226521800351E+01  0.194228970073E+01
  0.165675725991E+01  0.140593377645E+01  0.118698477024E+01  0.997017339742E+00  0.833159392744E+00
  0.692625453128E+00  0.572767292331E+00  0.471107805186E+00  0.385360305466E+00  0.313437400471E+00
  0.253451723117E+00  0.203711211889E+00  0.162710693569E+00  0.129121010586E+00  0.101776609421E+00
  0.796622930107E-01  0.618996806998E-01  0.477337869701E-01  0.365200176660E-01  0.277117891071E-01
  0.208489015311E-01  0.155467424512E-01  0.114863554853E-01  0.840538232380E-02  0.608986718530E-02
  0.436690064696E-02  0.309807144818E-02  0.217368867312E-02  0.150773176296E-02  0.103348150522E-02
  0.699781386377E-03  0.467875601388E-03  0.308767798062E-03  0.201043532453E-03  0.129099560764E-03
  0.817245285825E-04  0.509782585048E-04  0.313205041991E-04  0.189444968809E-04  0.112755896553E-04
  0.660053608659E-05  0.379816933254E-05  0.214725961633E-05  0.119194911443E-05  0.649275564988E-06
  0.346833657428E-06  0.181570188687E-06  0.930888097710E-07  0.467054387259E-07  0.229156227525E-07
  0.109864617440E-07  0.514286330779E-08  0.234867929426E-08  0.104557837096E-08  0.453354503961E-09
  0.191290583853E-09  0.784766415488E-10  0.312741548462E-10  0.120955583502E-10  0.453572841124E-11
  0.164748908891E-11  0.579046173683E-12  0.196727964981E-12  0.645377660077E-13  0.204208658028E-13
  0.622512818218E-14  0.182608606554E-14  0.514826036349E-15  0.139320671753E-15  0.361424164269E-16
  0.897587451192E-17  0.213101089599E-17
 kinetic energy-density
  0.420695327584E+04  0.422408263221E+04  0.424203250696E+04  0.426082975501E+04  0.428050230181E+04
  0.430107913920E+04  0.432259035127E+04  0.434506734174E+04  0.436854275636E+04  0.439305069188E+04
  0.441862664235E+04  0.444530767552E+04  0.447313266731E+04  0.450214210225E+04  0.453237834944E+04
  0.456388588250E+04  0.459671139339E+04  0.463090323733E+04  0.466651269126E+04  0.470359344922E+04
  0.474220136377E+04  0.478239564979E+04  0.482423788732E+04  0.486779277907E+04  0.491312834479E+04
  0.496031581942E+04  0.500942965906E+04  0.506054833416E+04  0.511375383746E+04  0.516913210591E+04
  0.522677328955E+04  0.528677179470E+04  0.534922662661E+04  0.541424139386E+04  0.548192477099E+04
  0.555239050549E+04  0.562575782907E+04  0.570215164504E+04  0.578170281023E+04  0.586454842311E+04
  0.595083214947E+04  0.604070453687E+04  0.613432335937E+04  0.623185398013E+04  0.633346974395E+04
  0.643935237802E+04  0.654969242357E+04  0.666468968917E+04  0.678455372899E+04  0.690950434552E+04
  0.703977212209E+04  0.717559898040E+04  0.731723878058E+04  0.746495788725E+04  0.761903592732E+04
  0.777976636593E+04  0.794745727160E+04  0.812243206405E+04  0.830503033248E+04  0.849560861457E+04
  0.869454127353E+04  0.890222152155E+04  0.911906218351E+04  0.934549685460E+04  0.958198087313E+04
  0.982899247630E+04  0.100870338516E+05  0.103566323940E+05  0.106383420243E+05  0.109327443218E+05
  0.112404500569E+05  0.115621004825E+05  0.118983689077E+05  0.122499621506E+05  0.126176221712E+05
  0.130021277531E+05  0.134042961676E+05  0.138249850019E+05  0.142650939692E+05  0.147255668431E+05
  0.152073934025E+05  0.157116114707E+05  0.162393090225E+05  0.167916262860E+05  0.173697580104E+05
  0.179749556412E+05  0.186085297085E+05  0.192718521065E+05  0.199663585490E+05  0.206935509168E+05
  0.214549997947E+05  0.222523468539E+05  0.230873073895E+05  0.239616727632E+05  0.248773129601E+05
  0.258361787827E+05  0.268403045050E+05  0.278918101020E+05  0.289929034178E+05  0.301458825246E+05
  0.313531374121E+05  0.326171522399E+05  0.339405067735E+05  0.353258779186E+05  0.367760409578E+05
  0.382938705987E+05  0.398823414195E+05  0.415445282469E+05  0.432836059467E+05  0.451028486981E+05
  0.470056290550E+05  0.489954159343E+05  0.510757722645E+05  0.532503519582E+05  0.555228958513E+05
  0.578972269235E+05  0.603772445858E+05  0.629669176821E+05  0.656702767535E+05  0.684914046370E+05
  0.714344260910E+05  0.745034956657E+05  0.777027843115E+05  0.810364640988E+05  0.845086913308E+05
  0.881235876709E+05  0.918852192918E+05  0.957975740392E+05  0.998645361159E+05  0.104089858716E+06
  0.108477134065E+06  0.113029760953E+06  0.117750909715E+06  0.122643484540E+06  0.127710082709E+06
  0.132952951949E+06  0.138373943484E+06  0.143974463918E+06  0.149755423192E+06  0.155717180137E+06
  0.161859485730E+06  0.168181423248E+06  0.174681346879E+06  0.181356817416E+06  0.188204536818E+06
  0.195220281162E+06  0.202398832128E+06  0.209733908939E+06  0.217218098825E+06  0.224842789796E+06
  0.232598103295E+06  0.240472829959E+06  0.248454367975E+06  0.256528665566E+06  0.264680168551E+06
  0.272891774116E+06  0.281144791998E+06  0.289418914639E+06  0.297692197112E+06  0.305941049166E+06
  0.314140239817E+06  0.322262917105E+06  0.330280643521E+06  0.338163449501E+06  0.345879905934E+06
  0.353397217377E+06  0.360681337192E+06  0.367697105956E+06  0.374408414064E+06  0.380778389355E+06
  0.386769610467E+06  0.392344345989E+06  0.397464819574E+06  0.402093500185E+06  0.406193416949E+06
  0.409728496822E+06  0.412663923363E+06  0.414966513908E+06  0.416605112111E+06  0.417550992047E+06
  0.417778269423E+06  0.417264314924E+06  0.415990164037E+06  0.413940917014E+06  0.411106122271E+06
  0.407480135993E+06  0.403062450233E+06  0.397857981820E+06  0.391877313984E+06  0.385136882938E+06
  0.377659101835E+06  0.369472414991E+06  0.360611276058E+06  0.351116044870E+06  0.341032798747E+06
  0.330413055690E+06  0.319313408486E+06  0.307795070353E+06  0.295923334764E+06  0.283766953610E+06
  0.271397439337E+06  0.258888297554E+06  0.246314210093E+06  0.233750120000E+06  0.221270365156E+06
  0.208947700122E+06  0.196852352304E+06  0.185051082400E+06  0.173606281336E+06  0.162575128203E+06
  0.152008832002E+06  0.141951976134E+06  0.132441979739E+06  0.123508685181E+06  0.115174077085E+06
  0.107452135402E+06  0.100348822865E+06  0.938622057753E+05  0.879827056686E+05  0.826934781528E+05
  0.779709130901E+05  0.737852479336E+05  0.701012832464E+05  0.668791863658E+05  0.640753667868E+05
  0.616434046477E+05  0.595350121614E+05  0.577010070398E+05  0.560922770774E+05  0.546607151034E+05
  0.533601049128E+05  0.521469399930E+05  0.509811588339E+05  0.498267823054E+05  0.486524413222E+05
  0.474317848545E+05  0.461437612014E+05  0.447727676548E+05  0.433086666229E+05  0.417466687081E+05
  0.400870866937E+05  0.383349673256E+05  0.364996119521E+05  0.345940009202E+05  0.326341408646E+05
  0.306383576403E+05  0.286265593150E+05  0.266194926909E+05  0.246380145396E+05  0.227023827956E+05
  0.208316013584E+05  0.190427840155E+05  0.173506447852E+05  0.157670571352E+05  0.143007924840E+05
  0.129574310713E+05  0.117394408553E+05  0.106463783537E+05  0.967515855472E+04  0.882036531257E+04
  0.807459852573E+04  0.742885888993E+04  0.687296247042E+04  0.639596929569E+04  0.598660716113E+04
  0.563367235488E+04  0.532639108708E+04  0.505472818912E+04  0.480963337057E+04  0.458321931891E+04
  0.436887027699E+04  0.416128388067E+04  0.395645244209E+04  0.375159246762E+04  0.354503308241E+04
  0.333607454536E+04  0.312482824417E+04  0.291204855155E+04  0.269896584175E+04  0.248712814671E+04
  0.227825729039E+04  0.207412335666E+04  0.187643966648E+04  0.168677983883E+04  0.150651523295E+04
  0.133677302529E+04  0.117841055930E+04  0.103200909177E+04  0.897877533469E+03  0.776069395019E+03
  0.666408278434E+03  0.568519964666E+03  0.481868587866E+03  0.405794173434E+03  0.339548717417E+03
  0.282328287626E+03  0.233299713939E+03  0.191622209213E+03  0.156465766655E+03  0.127028174115E+03
  0.102551206365E+03  0.823325128963E+02  0.657365405909E+02  0.521969006165E+02  0.412163253245E+02
  0.323633450453E+02  0.252673232766E+02  0.196127244028E+02  0.151331450147E+02  0.116054213101E+02
  0.884400329499E+01  0.669571527493E+01  0.503497509434E+01  0.375950773905E+01  0.278656100787E+01
  0.204960901643E+01  0.149551436756E+01  0.108211036564E+01  0.776159831881E+00  0.551645882598E+00
  0.388351205254E+00  0.270685260491E+00  0.186722513256E+00  0.127418894591E+00  0.859777697225E-01
  0.573405290976E-01  0.377804321698E-01  0.245814514331E-01  0.157866054737E-01  0.100026632394E-01
  0.625018444720E-02  0.384967436722E-02  0.233620464972E-02  0.139621393761E-02  0.821373674539E-03
  0.475405326394E-03  0.270582525042E-03  0.151361433537E-03  0.831697705768E-04  0.448633626112E-04
  0.237421896330E-04  0.123186705440E-04  0.626206551502E-05  0.311648057006E-05  0.151730731778E-05
  0.722108623566E-06  0.335659217367E-06  0.152264908942E-06  0.673497931318E-07  0.290221958967E-07
  0.121729750340E-07  0.496526955393E-08  0.196773899316E-08  0.756938568906E-09  0.282359419336E-09
  0.102037916935E-09  0.356858337929E-10  0.120656171474E-10  0.393961103011E-11  0.124086133563E-11
  0.376582122339E-12  0.109988362904E-12  0.308781489729E-13  0.832189488235E-14  0.215025494532E-14
  0.531943366385E-15  0.125817033358E-15
 mkinetic energy-density pseudized
  0.225631471324E-05  0.240543996370E-05  0.256442125951E-05  0.273391001031E-05  0.291460067898E-05
  0.310723362713E-05  0.331259814860E-05  0.353153570358E-05  0.376494336637E-05  0.401377750105E-05
  0.427905768009E-05  0.456187086194E-05  0.486337584476E-05  0.518480801439E-05  0.552748440634E-05
  0.589280910210E-05  0.628227898227E-05  0.669748985985E-05  0.714014301895E-05  0.761205218560E-05
  0.811515095930E-05  0.865150073575E-05  0.922329915322E-05  0.983288909710E-05  0.104827682997E-04
  0.111755995743E-04  0.119142217260E-04  0.127016611831E-04  0.135411443979E-04  0.144361110665E-04
  0.153902282226E-04  0.164074052631E-04  0.174918099658E-04  0.186478855673E-04  0.198803689678E-04
  0.211943101406E-04  0.225950928235E-04  0.240884565786E-04  0.256805203086E-04  0.273778073295E-04
  0.291872720979E-04  0.311163287074E-04  0.331728812660E-04  0.353653562826E-04  0.377027371941E-04
  0.401946011734E-04  0.428511583711E-04  0.456832937503E-04  0.487026116865E-04  0.519214835152E-04
  0.553530982219E-04  0.590115164826E-04  0.629117282753E-04  0.670697143001E-04  0.715025114577E-04
  0.762282826564E-04  0.812663912319E-04  0.866374802865E-04  0.923635572712E-04  0.984680841585E-04
  0.104976073575E-03  0.111914191285E-03  0.119310865456E-03  0.127196403129E-03  0.135603114409E-03
  0.144565444840E-03  0.154120116550E-03  0.164306278705E-03  0.175165667927E-03  0.186742779292E-03
  0.199085048653E-03  0.212243046990E-03  0.226270687623E-03  0.241225447108E-03  0.257168600742E-03
  0.274165473621E-03  0.292285708303E-03  0.311603550148E-03  0.332198151531E-03  0.354153896147E-03
  0.377560744757E-03  0.402514603780E-03  0.429117718251E-03  0.457479090741E-03  0.487714927973E-03
  0.519949116944E-03  0.554313732520E-03  0.590949578578E-03  0.630006764905E-03  0.671645322230E-03
  0.716035857897E-03  0.763360254873E-03  0.813812416949E-03  0.867599063190E-03  0.924940574889E-03
  0.986071898487E-03  0.105124350817E-02  0.112072243209E-02  0.119479334634E-02  0.127375974135E-02
  0.135794516523E-02  0.144769454932E-02  0.154337562143E-02  0.164538041227E-02  0.175412686166E-02
  0.187006053066E-02  0.199365642702E-02  0.212542095113E-02  0.226589397059E-02  0.241565103189E-02
  0.257530571819E-02  0.274551216290E-02  0.292696772936E-02  0.312041586755E-02  0.332664915951E-02
  0.354651256610E-02  0.378090688806E-02  0.403079245595E-02  0.429719306367E-02  0.458120016201E-02
  0.488397732906E-02  0.520676503606E-02  0.555088572802E-02  0.591774923990E-02  0.630885857056E-02
  0.672581603815E-02  0.717032984184E-02  0.764422105714E-02  0.814943109299E-02  0.868802964140E-02
  0.926222315199E-02  0.987436386605E-02  0.105269594471E-01  0.112226832473E-01  0.119643852514E-01
  0.127551037434E-01  0.135980777429E-01  0.144967602625E-01  0.154548324399E-01  0.164762186026E-01
  0.175651023267E-01  0.187259435545E-01  0.199634968418E-01  0.212828308087E-01  0.226893488725E-01
  0.241888113483E-01  0.257873590058E-01  0.274915381795E-01  0.293083275335E-01  0.312451665892E-01
  0.333099861331E-01  0.355112406268E-01  0.378579427508E-01  0.403597002232E-01  0.430267550399E-01
  0.458700252983E-01  0.489011497702E-01  0.521325354068E-01  0.555774079649E-01  0.592498659602E-01
  0.631649381642E-01  0.673386448749E-01  0.717880632097E-01  0.765313966794E-01  0.815880493238E-01
  0.869787047051E-01  0.927254100735E-01  0.988516660410E-01  0.105382522119E+00  0.112344678503E+00
  0.119766594498E+00  0.127678604023E+00  0.136113038647E+00  0.145104358637E+00  0.154689292530E+00
  0.164906985785E+00  0.175799159079E+00  0.187410276874E+00  0.199787726904E+00  0.212982011260E+00
  0.227046949828E+00  0.242039896842E+00  0.258021971372E+00  0.275058302629E+00  0.293218291001E+00
  0.312575885795E+00  0.333209880713E+00  0.355204228161E+00  0.378648373520E+00  0.403637610610E+00
  0.430273459611E+00  0.458664068789E+00  0.488924641438E+00  0.521177889536E+00  0.555554515653E+00
  0.592193724766E+00  0.631243767680E+00  0.672862517849E+00  0.717218083463E+00  0.764489456735E+00
  0.814867202427E+00  0.868554187685E+00  0.925766355366E+00  0.986733543082E+00  0.105170035024E+01
  0.112092705548E+01  0.119469058677E+01  0.127328554678E+01  0.135702529581E+01  0.144624309472E+01
  0.154129331043E+01  0.164255268619E+01  0.175042167900E+01  0.186532586636E+01  0.198771742440E+01
  0.211807667910E+01  0.225691373236E+01  0.240477016395E+01  0.256222081035E+01  0.272987562068E+01
  0.290838158958E+01  0.309842476597E+01  0.330073233592E+01  0.351607477686E+01  0.374526807897E+01
  0.398917602853E+01  0.424871254617E+01  0.452484407110E+01  0.481859198037E+01  0.513103502963E+01
  0.546331179890E+01  0.581662312383E+01  0.619223448883E+01  0.659147835447E+01  0.701575638648E+01
  0.746654154822E+01  0.794538001209E+01  0.845389283867E+01  0.899377736374E+01  0.956680822518E+01
  0.101748379510E+02  0.108197970190E+02  0.115036932864E+02  0.122286106727E+02  0.129967069654E+02
  0.138102106005E+02  0.146714162510E+02  0.155826790371E+02  0.165464071502E+02  0.175650526571E+02
  0.186411002294E+02  0.197770535118E+02  0.209754188178E+02  0.222386858107E+02  0.235693047970E+02
  0.249696602288E+02  0.264420399834E+02  0.279885999551E+02  0.296113234731E+02  0.313119750322E+02
  0.330920478093E+02  0.349527044279E+02  0.368947104382E+02  0.389183599934E+02  0.410233932408E+02
  0.432089050031E+02  0.454732444156E+02  0.478139053032E+02  0.502274072546E+02  0.527091675656E+02
  0.552533645069E+02  0.578527927266E+02  0.604987120399E+02  0.631806913933E+02  0.658864504447E+02
  0.686017019740E+02  0.713099992489E+02  0.739925935312E+02  0.766283081180E+02  0.791934366818E+02
  0.816616751838E+02  0.840040982824E+02  0.861891928959E+02  0.881829633621E+02  0.899491243810E+02
  0.914493995156E+02  0.926439443138E+02  0.934919138833E+02  0.939521947466E+02  0.939843196897E+02
  0.935495816891E+02  0.926123583629E+02  0.911416511906E+02  0.891128333254E+02  0.865095855057E+02
  0.833259806533E+02  0.795686535578E+02  0.752589620900E+02  0.704350103882E+02  0.651533626424E+02
  0.594902293175E+02  0.535418577786E+02  0.474238094897E+02  0.412687611823E+02  0.352224347514E+02
  0.294372498537E+02  0.240633169161E+02  0.192364622517E+02  0.150631197689E+02  0.116021558822E+02
  0.884400329499E+01  0.669571527493E+01  0.503497509434E+01  0.375950773905E+01  0.278656100787E+01
  0.204960901643E+01  0.149551436756E+01  0.108211036564E+01  0.776159831881E+00  0.551645882598E+00
  0.388351205254E+00  0.270685260491E+00  0.186722513256E+00  0.127418894591E+00  0.859777697225E-01
  0.573405290976E-01  0.377804321698E-01  0.245814514331E-01  0.157866054737E-01  0.100026632394E-01
  0.625018444720E-02  0.384967436722E-02  0.233620464972E-02  0.139621393761E-02  0.821373674539E-03
  0.475405326394E-03  0.270582525042E-03  0.151361433537E-03  0.831697705768E-04  0.448633626112E-04
  0.237421896330E-04  0.123186705440E-04  0.626206551502E-05  0.311648057006E-05  0.151730731778E-05
  0.722108623566E-06  0.335659217367E-06  0.152264908942E-06  0.673497931318E-07  0.290221958967E-07
  0.121729750340E-07  0.496526955393E-08  0.196773899316E-08  0.756938568906E-09  0.282359419336E-09
  0.102037916935E-09  0.356858337929E-10  0.120656171474E-10  0.393961103011E-11  0.124086133563E-11
  0.376582122339E-12  0.109988362904E-12  0.308781489729E-13  0.832189488235E-14  0.215025494532E-14
  0.531943366385E-15  0.125817033358E-15
 local pseudopotential core
 -0.105433521898E+03 -0.105432122131E+03 -0.105430766453E+03 -0.105429453477E+03 -0.105428181857E+03
 -0.105426950292E+03 -0.105425757520E+03 -0.105424602321E+03 -0.105423483512E+03 -0.105422399948E+03
 -0.105421350518E+03 -0.105420334149E+03 -0.105419349800E+03 -0.105418396463E+03 -0.105417473163E+03
 -0.105416578954E+03 -0.105415712921E+03 -0.105414874178E+03 -0.105414061866E+03 -0.105413275155E+03
 -0.105412513238E+03 -0.105411775336E+03 -0.105411060694E+03 -0.105410368582E+03 -0.105409698290E+03
 -0.105409049134E+03 -0.105408420449E+03 -0.105407811593E+03 -0.105407221943E+03 -0.105406650896E+03
 -0.105406097868E+03 -0.105405562295E+03 -0.105405043629E+03 -0.105404541340E+03 -0.105404054916E+03
 -0.105403583859E+03 -0.105403127690E+03 -0.105402685942E+03 -0.105402258165E+03 -0.105401843922E+03
 -0.105401442793E+03 -0.105401054368E+03 -0.105400678252E+03 -0.105400314062E+03 -0.105399961428E+03
 -0.105399619992E+03 -0.105399289407E+03 -0.105398969338E+03 -0.105398659460E+03 -0.105398359461E+03
 -0.105398069037E+03 -0.105397787894E+03 -0.105397515750E+03 -0.105397252330E+03 -0.105396997370E+03
 -0.105396750614E+03 -0.105396511816E+03 -0.105396280737E+03 -0.105396057147E+03 -0.105395840825E+03
 -0.105395631556E+03 -0.105395429133E+03 -0.105395233360E+03 -0.105395044043E+03 -0.105394861000E+03
 -0.105394684052E+03 -0.105394513031E+03 -0.105394347772E+03 -0.105394188119E+03 -0.105394033922E+03
 -0.105393885038E+03 -0.105393741329E+03 -0.105393602665E+03 -0.105393468920E+03 -0.105393339977E+03
 -0.105393215724E+03 -0.105393096053E+03 -0.105392980865E+03 -0.105392870067E+03 -0.105392763570E+03
 -0.105392661292E+03 -0.105392563158E+03 -0.105392469098E+03 -0.105392379048E+03 -0.105392292953E+03
 -0.105392210761E+03 -0.105392132428E+03 -0.105392057916E+03 -0.105391987195E+03 -0.105391920241E+03
 -0.105391857036E+03 -0.105391797572E+03 -0.105391741846E+03 -0.105391689863E+03 -0.105391641637E+03
 -0.105391597191E+03 -0.105391556554E+03 -0.105391519765E+03 -0.105391486873E+03 -0.105391457937E+03
 -0.105391433025E+03 -0.105391412215E+03 -0.105391395599E+03 -0.105391383277E+03 -0.105391375363E+03
 -0.105391371985E+03 -0.105391373283E+03 -0.105391379412E+03 -0.105391390541E+03 -0.105391406857E+03
 -0.105391428561E+03 -0.105391455874E+03 -0.105391489037E+03 -0.105391528306E+03 -0.105391573964E+03
 -0.105391626313E+03 -0.105391685679E+03 -0.105391752413E+03 -0.105391826896E+03 -0.105391909532E+03
 -0.105392000761E+03 -0.105392101050E+03 -0.105392210903E+03 -0.105392330860E+03 -0.105392461498E+03
 -0.105392603438E+03 -0.105392757341E+03 -0.105392923918E+03 -0.105393103927E+03 -0.105393298179E+03
 -0.105393507541E+03 -0.105393732941E+03 -0.105393975369E+03 -0.105394235883E+03 -0.105394515613E+03
 -0.105394815766E+03 -0.105395137631E+03 -0.105395482583E+03 -0.105395852090E+03 -0.105396247721E+03
 -0.105396671146E+03 -0.105397124151E+03 -0.105397608640E+03 -0.105398126645E+03 -0.105398680331E+03
 -0.105399272012E+03 -0.105399904154E+03 -0.105400579385E+03 -0.105401300512E+03 -0.105402070527E+03
 -0.105402892619E+03 -0.105403770192E+03 -0.105404706873E+03 -0.105405706532E+03 -0.105406773295E+03
 -0.105407911559E+03 -0.105409126016E+03 -0.105410421666E+03 -0.105411803841E+03 -0.105413278226E+03
 -0.105414850882E+03 -0.105416528268E+03 -0.105418317275E+03 -0.105420225245E+03 -0.105422260007E+03
 -0.105424429906E+03 -0.105426743839E+03 -0.105429211289E+03 -0.105431842366E+03 -0.105434647845E+03
 -0.105437639212E+03 -0.105440828712E+03 -0.105444229394E+03 -0.105447855168E+03 -0.105451720861E+03
 -0.105455842274E+03 -0.105460236249E+03 -0.105464920736E+03 -0.105469914864E+03 -0.105475239021E+03
 -0.105480914933E+03 -0.105486965754E+03 -0.105493416156E+03 -0.105500292433E+03 -0.105507622598E+03
 -0.105515436505E+03 -0.105523765960E+03 -0.105532644852E+03 -0.105542109285E+03 -0.105552197725E+03
 -0.105562951148E+03 -0.105574413206E+03 -0.105586630395E+03 -0.105599652242E+03 -0.105613531495E+03
 -0.105628324331E+03 -0.105644090575E+03 -0.105660893933E+03 -0.105678802234E+03 -0.105697887699E+03
 -0.105718227208E+03 -0.105739902604E+03 -0.105763000994E+03 -0.105787615086E+03 -0.105813843533E+03
 -0.105841791303E+03 -0.105871570066E+03 -0.105903298610E+03 -0.105937103272E+03 -0.105973118396E+03
 -0.106011486818E+03 -0.106052360375E+03 -0.106095900439E+03 -0.106142278478E+03 -0.106191676653E+03
 -0.106244288432E+03 -0.106300319243E+03 -0.106359987151E+03 -0.106423523570E+03 -0.106491174000E+03
 -0.106563198798E+03 -0.106639873976E+03 -0.106721492031E+03 -0.106808362799E+03 -0.106900814337E+03
 -0.106999193825E+03 -0.107103868497E+03 -0.107215226578E+03 -0.107333678244E+03 -0.107459656584E+03
 -0.107593618559E+03 -0.107736045967E+03 -0.107887446377E+03 -0.108048354045E+03 -0.108219330790E+03
 -0.108400966809E+03 -0.108593881432E+03 -0.108798723776E+03 -0.109016173290E+03 -0.109246940159E+03
 -0.109491765543E+03 -0.109751421612E+03 -0.110026711336E+03 -0.110318468002E+03 -0.110627554395E+03
 -0.110954861592E+03 -0.111301307321E+03 -0.111667833795E+03 -0.112055404972E+03 -0.112465003138E+03
 -0.112897624733E+03 -0.113354275320E+03 -0.113835963576E+03 -0.114343694203E+03 -0.114878459613E+03
 -0.115441230260E+03 -0.116032943454E+03 -0.116654490508E+03 -0.117306702047E+03 -0.117990331283E+03
 -0.118706035085E+03 -0.119454352637E+03 -0.120235681487E+03 -0.121050250778E+03 -0.121898091460E+03
 -0.122779003284E+03 -0.123692518377E+03 -0.124637861229E+03 -0.125613904933E+03 -0.126619123531E+03
 -0.127651540402E+03 -0.128708672610E+03 -0.129787471257E+03 -0.130884257895E+03 -0.131994657205E+03
 -0.133113526187E+03 -0.134234880321E+03 -0.135351817225E+03 -0.136456438621E+03 -0.137539771570E+03
 -0.138591690288E+03 -0.139600840168E+03 -0.140554566079E+03 -0.141438847584E+03 -0.142238244377E+03
 -0.142935856167E+03 -0.143513302372E+03 -0.143950728420E+03 -0.144226847408E+03 -0.144319028201E+03
 -0.144203444132E+03 -0.143855300200E+03 -0.143249161148E+03 -0.142359408102E+03 -0.141160857071E+03
 -0.139629578317E+03 -0.137743960003E+03 -0.135486061029E+03 -0.132843293523E+03 -0.129810460959E+03
 -0.126392147542E+03 -0.122605401653E+03 -0.118482573975E+03 -0.114074055312E+03 -0.109450513337E+03
 -0.104704068236E+03 -0.999477123486E+02 -0.953122302876E+02 -0.909399944251E+02 -0.869753709874E+02
 -0.835524507025E+02 -0.808097814864E+02 -0.788303321953E+02 -0.774494917562E+02 -0.749971382907E+02
 -0.726312856517E+02 -0.703410180947E+02 -0.681236805946E+02 -0.659767660635E+02 -0.638978983728E+02
 -0.618848145980E+02 -0.599353551746E+02 -0.580474490808E+02 -0.562191103967E+02 -0.544484301560E+02
 -0.527335670512E+02 -0.510727462780E+02 -0.494642540857E+02 -0.479064341071E+02 -0.463976852152E+02
 -0.449364582117E+02 -0.435212540222E+02 -0.421506216209E+02 -0.408231562833E+02 -0.395374978267E+02
 -0.382923292206E+02 -0.370863750328E+02 -0.359184001640E+02 -0.347872084619E+02 -0.336916414622E+02
 -0.326305773532E+02 -0.316029295204E+02 -0.306076456675E+02 -0.296437066081E+02 -0.287101252461E+02
 -0.278059455589E+02 -0.269302416144E+02 -0.260821166281E+02 -0.252607020470E+02 -0.244651566632E+02
 -0.236946657558E+02 -0.229484402608E+02 -0.222257159640E+02 -0.215257527203E+02 -0.208478336962E+02
 -0.201912646360E+02 -0.195553731508E+02 -0.189395080293E+02 -0.183430385710E+02 -0.177653539395E+02
 -0.172058625369E+02 -0.166639913974E+02 -0.161391856004E+02 -0.156309077021E+02 -0.151386371848E+02
 -0.146618699235E+02 -0.142001176703E+02
 pspotential valence only
 -0.716922695033E+02 -0.716908696766E+02 -0.716895139347E+02 -0.716882008900E+02 -0.716869291976E+02
 -0.716856975549E+02 -0.716845047012E+02 -0.716833494145E+02 -0.716822305117E+02 -0.716811468471E+02
 -0.716800973108E+02 -0.716790808282E+02 -0.716780963581E+02 -0.716771428923E+02 -0.716762194547E+02
 -0.716753250992E+02 -0.716744589103E+02 -0.716736200004E+02 -0.716728075111E+02 -0.716720206100E+02
 -0.716712584910E+02 -0.716705203738E+02 -0.716698055026E+02 -0.716691131454E+02 -0.716684425930E+02
 -0.716677931588E+02 -0.716671641776E+02 -0.716665550055E+02 -0.716659650183E+02 -0.716653936121E+02
 -0.716648402016E+02 -0.716643042201E+02 -0.716637851189E+02 -0.716632823660E+02 -0.716627954469E+02
 -0.716623238629E+02 -0.716618671311E+02 -0.716614247835E+02 -0.716609963674E+02 -0.716605814440E+02
 -0.716601795882E+02 -0.716597903889E+02 -0.716594134472E+02 -0.716590483773E+02 -0.716586948050E+02
 -0.716583523686E+02 -0.716580207174E+02 -0.716576995116E+02 -0.716573884224E+02 -0.716570871311E+02
 -0.716567953294E+02 -0.716565127183E+02 -0.716562390086E+02 -0.716559739198E+02 -0.716557171805E+02
 -0.716554685280E+02 -0.716552277076E+02 -0.716549944727E+02 -0.716547685845E+02 -0.716545498116E+02
 -0.716543379302E+02 -0.716541327233E+02 -0.716539339807E+02 -0.716537414990E+02 -0.716535550812E+02
 -0.716533745364E+02 -0.716531996798E+02 -0.716530303323E+02 -0.716528663207E+02 -0.716527074770E+02
 -0.716525536387E+02 -0.716524046484E+02 -0.716522603535E+02 -0.716521206064E+02 -0.716519852640E+02
 -0.716518541881E+02 -0.716517272443E+02 -0.716516043028E+02 -0.716514852380E+02 -0.716513699280E+02
 -0.716512582549E+02 -0.716511501045E+02 -0.716510453663E+02 -0.716509439333E+02 -0.716508457016E+02
 -0.716507505711E+02 -0.716506584445E+02 -0.716505692277E+02 -0.716504828297E+02 -0.716503991623E+02
 -0.716503181401E+02 -0.716502396804E+02 -0.716501637034E+02 -0.716500901316E+02 -0.716500188901E+02
 -0.716499499063E+02 -0.716498831101E+02 -0.716498184336E+02 -0.716497558110E+02 -0.716496951789E+02
 -0.716496364757E+02 -0.716495796421E+02 -0.716495246204E+02 -0.716494713550E+02 -0.716494197923E+02
 -0.716493698802E+02 -0.716493215686E+02 -0.716492748089E+02 -0.716492295542E+02 -0.716491857594E+02
 -0.716491433806E+02 -0.716491023758E+02 -0.716490627043E+02 -0.716490243268E+02 -0.716489872056E+02
 -0.716489513042E+02 -0.716489165875E+02 -0.716488830219E+02 -0.716488505749E+02 -0.716488192153E+02
 -0.716487889132E+02 -0.716487596400E+02 -0.716487313681E+02 -0.716487040713E+02 -0.716486777244E+02
 -0.716486523035E+02 -0.716486277858E+02 -0.716486041497E+02 -0.716485813745E+02 -0.716485594409E+02
 -0.716485383306E+02 -0.716485180264E+02 -0.716484985123E+02 -0.716484797733E+02 -0.716484617956E+02
 -0.716484445665E+02 -0.716484280746E+02 -0.716484123095E+02 -0.716483972619E+02 -0.716483829238E+02
 -0.716483692886E+02 -0.716483563506E+02 -0.716483441055E+02 -0.716483325505E+02 -0.716483216837E+02
 -0.716483115051E+02 -0.716483020157E+02 -0.716482932182E+02 -0.716482851168E+02 -0.716482777171E+02
 -0.716482710265E+02 -0.716482650541E+02 -0.716482598107E+02 -0.716482553092E+02 -0.716482515641E+02
 -0.716482485922E+02 -0.716482464123E+02 -0.716482450455E+02 -0.716482445154E+02 -0.716482448477E+02
 -0.716482460711E+02 -0.716482482170E+02 -0.716482513196E+02 -0.716482554161E+02 -0.716482605472E+02
 -0.716482667568E+02 -0.716482740926E+02 -0.716482826060E+02 -0.716482923526E+02 -0.716483033921E+02
 -0.716483157892E+02 -0.716483296128E+02 -0.716483449376E+02 -0.716483618431E+02 -0.716483804150E+02
 -0.716484007451E+02 -0.716484229313E+02 -0.716484470788E+02 -0.716484732999E+02 -0.716485017146E+02
 -0.716485324512E+02 -0.716485656467E+02 -0.716486014473E+02 -0.716486400088E+02 -0.716486814978E+02
 -0.716487260916E+02 -0.716487739792E+02 -0.716488253619E+02 -0.716488804542E+02 -0.716489394846E+02
 -0.716490026959E+02 -0.716490703467E+02 -0.716491427119E+02 -0.716492200840E+02 -0.716493027737E+02
 -0.716493911109E+02 -0.716494854462E+02 -0.716495861518E+02 -0.716496936226E+02 -0.716498082775E+02
 -0.716499305604E+02 -0.716500609421E+02 -0.716501999210E+02 -0.716503480248E+02 -0.716505058118E+02
 -0.716506738722E+02 -0.716508528299E+02 -0.716510433436E+02 -0.716512461083E+02 -0.716514618568E+02
 -0.716516913611E+02 -0.716519354334E+02 -0.716521949281E+02 -0.716524707421E+02 -0.716527638162E+02
 -0.716530751363E+02 -0.716534057334E+02 -0.716537566846E+02 -0.716541291129E+02 -0.716545241868E+02
 -0.716549431201E+02 -0.716553871705E+02 -0.716558576374E+02 -0.716563558601E+02 -0.716568832139E+02
 -0.716574411063E+02 -0.716580309711E+02 -0.716586542622E+02 -0.716593124453E+02 -0.716600069878E+02
 -0.716607393474E+02 -0.716615109578E+02 -0.716623232124E+02 -0.716631774440E+02 -0.716640749028E+02
 -0.716650167289E+02 -0.716660039213E+02 -0.716670373017E+02 -0.716681174722E+02 -0.716692447667E+02
 -0.716704191945E+02 -0.716716403751E+02 -0.716729074630E+02 -0.716742190607E+02 -0.716755731185E+02
 -0.716769668189E+02 -0.716783964423E+02 -0.716798572126E+02 -0.716813431183E+02 -0.716828467050E+02
 -0.716843588355E+02 -0.716858684110E+02 -0.716873620478E+02 -0.716888237015E+02 -0.716902342300E+02
 -0.716915708855E+02 -0.716928067232E+02 -0.716939099137E+02 -0.716948429438E+02 -0.716955616876E+02
 -0.716960143292E+02 -0.716961401151E+02 -0.716958679116E+02 -0.716951145435E+02 -0.716937828837E+02
 -0.716917596688E+02 -0.716889130087E+02 -0.716850895643E+02 -0.716801113670E+02 -0.716737722569E+02
 -0.716658339261E+02 -0.716560215593E+02 -0.716440190768E+02 -0.716294640030E+02 -0.716119419998E+02
 -0.715909811321E+02 -0.715660459583E+02 -0.715365315721E+02 -0.715017577577E+02 -0.714609634584E+02
 -0.714133017940E+02 -0.713578359010E+02 -0.712935358952E+02 -0.712192772792E+02 -0.711338411216E+02
 -0.710359163224E+02 -0.709241042471E+02 -0.707969259523E+02 -0.706528321463E+02 -0.704902159213E+02
 -0.703074281760E+02 -0.701027955158E+02 -0.698746402939E+02 -0.696213023470E+02 -0.693411618930E+02
 -0.690326630134E+02 -0.686943371287E+02 -0.683248258868E+02 -0.679229029112E+02 -0.674874938432E+02
 -0.670176940474E+02 -0.665127831504E+02 -0.659722352317E+02 -0.653957229205E+02 -0.647831128862E+02
 -0.641344492990E+02 -0.634499209645E+02 -0.627298073686E+02 -0.619743994748E+02 -0.611838932586E+02
 -0.603586073768E+02 -0.595280199129E+02 -0.587048561699E+02 -0.577045221228E+02 -0.567203097849E+02
 -0.557221320691E+02 -0.547048730026E+02 -0.536716054399E+02 -0.526254370276E+02 -0.515694285827E+02
 -0.505065032067E+02 -0.494393638705E+02 -0.483704080284E+02 -0.473016587724E+02 -0.462347231358E+02
 -0.451707827604E+02 -0.441106334427E+02 -0.430547715121E+02 -0.420035218311E+02 -0.409571910084E+02
 -0.399162245785E+02 -0.388813435854E+02 -0.378536420570E+02 -0.368346334192E+02 -0.358262425738E+02
 -0.348307470788E+02 -0.338506750682E+02 -0.328886696118E+02 -0.319473305437E+02 -0.310290465533E+02
 -0.301358329808E+02 -0.292691932192E+02 -0.284300220720E+02 -0.276185657803E+02 -0.268344453118E+02
 -0.260767384961E+02 -0.253441060550E+02 -0.246349399225E+02 -0.239475112687E+02 -0.232800998261E+02
 -0.226310932649E+02 -0.219990528767E+02 -0.213827477880E+02 -0.207811635135E+02 -0.201934920111E+02
 -0.196191101231E+02 -0.190575521142E+02 -0.185084805263E+02 -0.179716581486E+02 -0.174469227304E+02
 -0.169341651959E+02 -0.164333115416E+02 -0.159443082399E+02 -0.154671107878E+02 -0.150016749623E+02
 -0.145479503429E+02 -0.141058756896E+02
 core charge-density (pseudized)
  0.161224131807E-07  0.171879821326E-07  0.183239770913E-07  0.195350526804E-07  0.208261711586E-07
  0.222026227524E-07  0.236700473317E-07  0.252344575191E-07  0.269022633257E-07  0.286802984157E-07
  0.305758481065E-07  0.325966792194E-07  0.347510719036E-07  0.370478535630E-07  0.394964350261E-07
  0.421068491050E-07  0.448897917047E-07  0.478566656480E-07  0.510196273975E-07  0.543916368652E-07
  0.579865105149E-07  0.618189779732E-07  0.659047423830E-07  0.702605447452E-07  0.749042325133E-07
  0.798548327216E-07  0.851326299462E-07  0.907592494192E-07  0.967577456355E-07  0.103152696816E-06
  0.109970305616E-06  0.117238506485E-06  0.124987080125E-06  0.133247775520E-06  0.142054440013E-06
  0.151443158004E-06  0.161452398792E-06  0.172123174203E-06  0.183499206635E-06  0.195627108196E-06
  0.208556571703E-06  0.222340574286E-06  0.237035594456E-06  0.252701843524E-06  0.269403512304E-06
  0.287209034133E-06  0.306191365264E-06  0.326428283801E-06  0.348002708381E-06  0.371003037924E-06
  0.395523513843E-06  0.421664606177E-06  0.449533425263E-06  0.479244160606E-06  0.510918548754E-06
  0.544686372098E-06  0.580685990643E-06  0.619064908918E-06  0.659980380356E-06  0.703600051620E-06
  0.750102649515E-06  0.799678713292E-06  0.852531375363E-06  0.908877193602E-06  0.968947038663E-06
  0.103298703994E-05  0.110125959404E-05  0.117404443992E-05  0.125163980508E-05  0.133436362748E-05
  0.142255485827E-05  0.151657485056E-05  0.161680884003E-05  0.172366752333E-05  0.183758874087E-05
  0.195903927079E-05  0.208851674146E-05  0.222655167045E-05  0.237370963821E-05  0.253059360543E-05
  0.269784638349E-05  0.287615326833E-05  0.306624484819E-05  0.326889999711E-05  0.348494906612E-05
  0.371527728540E-05  0.396082839128E-05  0.422260849296E-05  0.450169019470E-05  0.479921699054E-05
  0.511640794940E-05  0.545456270976E-05  0.581506680458E-05  0.619939733793E-05  0.660912903691E-05
  0.704594070348E-05  0.751162209262E-05  0.800808124513E-05  0.853735230487E-05  0.910160385278E-05
  0.970314779147E-05  0.103444488170E-04  0.110281345168E-04  0.117570061342E-04  0.125340500454E-04
  0.133624499935E-04  0.142456001322E-04  0.151871189307E-04  0.161908639975E-04  0.172609478837E-04
  0.184017549309E-04  0.196179592318E-04  0.209145437777E-04  0.222968208714E-04  0.237704538884E-04
  0.253414804759E-04  0.270163372849E-04  0.288018863361E-04  0.307054431270E-04  0.327348065970E-04
  0.348982910712E-04  0.372047603147E-04  0.396636638362E-04  0.422850755898E-04  0.450797352331E-04
  0.480590921104E-04  0.512353521409E-04  0.546215278030E-04  0.582314914207E-04  0.620800319676E-04
  0.661829156227E-04  0.705569503244E-04  0.752200545865E-04  0.801913308577E-04  0.854911437241E-04
  0.911412032734E-04  0.971646539622E-04  0.103586169348E-03  0.110432053073E-03  0.117730346512E-03
  0.125510943521E-03  0.133805712761E-03  0.142648628084E-03  0.152075907521E-03  0.162126161443E-03
  0.172840550478E-03  0.184262953853E-03  0.196440148817E-03  0.209422001910E-03  0.223261672809E-03
  0.238015831627E-03  0.253744890509E-03  0.270513250486E-03  0.288389564573E-03  0.307447018197E-03
  0.327763628057E-03  0.349422560659E-03  0.372512471791E-03  0.397127868312E-03  0.423369493715E-03
  0.451344739021E-03  0.481168080646E-03  0.512961547008E-03  0.546855215743E-03  0.582987743527E-03
  0.621506930604E-03  0.662570322310E-03  0.706345849946E-03  0.753012513592E-03  0.802761109539E-03
  0.855795005251E-03  0.912330964895E-03  0.972600028709E-03  0.103684844967E-02  0.110533869113E-02
  0.117835048929E-02  0.125618198476E-02  0.133915092745E-02  0.142759595955E-02  0.152187798159E-02
  0.162238160668E-02  0.172951670862E-02  0.184372006972E-02  0.196545713452E-02  0.209522387616E-02
  0.223354878214E-02  0.238099496708E-02  0.253816242016E-02  0.270569039547E-02  0.288425995399E-02
  0.307459666636E-02  0.327747348602E-02  0.349371380295E-02  0.372419468863E-02  0.396985034338E-02
  0.423167575793E-02  0.451073060141E-02  0.480814334869E-02  0.512511566046E-02  0.546292703001E-02
  0.582293971143E-02  0.620660394398E-02  0.661546348869E-02  0.705116149290E-02  0.751544669959E-02
  0.801018001833E-02  0.853734147533E-02  0.909903756001E-02  0.969750898599E-02  0.103351388842E-01
  0.110144614460E-01  0.117381710332E-01  0.125091317732E-01  0.133303876531E-01  0.142051731313E-01
  0.151369242765E-01  0.161292904499E-01  0.171861465378E-01  0.183116057424E-01  0.195100329354E-01
  0.207860585723E-01  0.221445931639E-01  0.235908422919E-01  0.251303221521E-01  0.267688755977E-01
  0.285126886475E-01  0.303683074115E-01  0.323426553737E-01  0.344430509574E-01  0.366772252798E-01
  0.390533399836E-01  0.415800050105E-01  0.442662961536E-01  0.471217721979E-01  0.501564914228E-01
  0.533810272013E-01  0.568064823877E-01  0.604445021353E-01  0.643072847305E-01  0.684075899652E-01
  0.727587445014E-01  0.773746436012E-01  0.822697485089E-01  0.874590786742E-01  0.929581978976E-01
  0.987831933608E-01  0.104950646375E+00  0.111477593534E+00  0.118381476813E+00  0.125680080974E+00
  0.133391456468E+00  0.141533825829E+00  0.150125471358E+00  0.159184601667E+00  0.168729194464E+00
  0.178776812696E+00  0.189344390999E+00  0.200447989139E+00  0.212102508977E+00  0.224321371283E+00
  0.237116148610E+00  0.250496150366E+00  0.264467956191E+00  0.279034893870E+00  0.294196458207E+00
  0.309947667657E+00  0.326278356124E+00  0.343172398101E+00  0.360606866497E+00  0.378551123937E+00
  0.396965850267E+00  0.415802011387E+00  0.434999777574E+00  0.454487403136E+00  0.474180083721E+00
  0.493978812968E+00  0.513769266462E+00  0.533420748361E+00  0.552785244449E+00  0.571696634977E+00
  0.589970131248E+00  0.607402011532E+00  0.623769744231E+00  0.638832598967E+00  0.652332858890E+00
  0.663997759223E+00  0.673542286843E+00  0.680672982163E+00  0.685092885903E+00  0.686507767297E+00
  0.684633753990E+00  0.679206454047E+00  0.669991613151E+00  0.656797280682E+00  0.639487362127E+00
  0.617996307123E+00  0.592344517474E+00  0.562653853872E+00  0.529162371385E+00  0.492237122767E+00
  0.452383540380E+00  0.410249553730E+00  0.366622240832E+00  0.322414480505E+00  0.278638816651E+00
  0.236365630232E+00  0.196662826353E+00  0.160514690752E+00  0.128718481301E+00  0.101758840740E+00
  0.796622930107E-01  0.618996806998E-01  0.477337869701E-01  0.365200176660E-01  0.277117891071E-01
  0.208489015311E-01  0.155467424512E-01  0.114863554853E-01  0.840538232380E-02  0.608986718530E-02
  0.436690064696E-02  0.309807144818E-02  0.217368867312E-02  0.150773176296E-02  0.103348150522E-02
  0.699781386377E-03  0.467875601388E-03  0.308767798062E-03  0.201043532453E-03  0.129099560764E-03
  0.817245285825E-04  0.509782585048E-04  0.313205041991E-04  0.189444968809E-04  0.112755896553E-04
  0.660053608659E-05  0.379816933254E-05  0.214725961633E-05  0.119194911443E-05  0.649275564988E-06
  0.346833657428E-06  0.181570188687E-06  0.930888097710E-07  0.467054387259E-07  0.229156227525E-07
  0.109864617440E-07  0.514286330779E-08  0.234867929426E-08  0.104557837096E-08  0.453354503961E-09
  0.191290583853E-09  0.784766415488E-10  0.312741548462E-10  0.120955583502E-10  0.453572841124E-11
  0.164748908891E-11  0.579046173683E-12  0.196727964981E-12  0.645377660077E-13  0.204208658028E-13
  0.622512818218E-14  0.182608606554E-14  0.514826036349E-15  0.139320671753E-15  0.361424164269E-16
  0.897587451192E-17  0.213101089599E-17
 pseudo wavefunction
  0.160830388902E-03  0.166060191892E-03  0.171460055025E-03  0.177035508233E-03  0.182792261265E-03
  0.188736209540E-03  0.194873440179E-03  0.201210238243E-03  0.207753093165E-03  0.214508705400E-03
  0.221483993284E-03  0.228686100121E-03  0.236122401496E-03  0.243800512831E-03  0.251728297180E-03
  0.259913873287E-03  0.268365623896E-03  0.277092204335E-03  0.286102551383E-03  0.295405892422E-03
  0.305011754883E-03  0.314929976006E-03  0.325170712913E-03  0.335744453011E-03  0.346662024730E-03
  0.357934608614E-03  0.369573748769E-03  0.381591364688E-03  0.393999763455E-03  0.406811652347E-03
  0.420040151854E-03  0.433698809108E-03  0.447801611759E-03  0.462363002303E-03  0.477397892866E-03
  0.492921680481E-03  0.508950262851E-03  0.525500054633E-03  0.542588004248E-03  0.560231611234E-03
  0.578448944170E-03  0.597258659181E-03  0.616680019038E-03  0.636732912890E-03  0.657437876629E-03
  0.678816113921E-03  0.700889517920E-03  0.723680693691E-03  0.747212981354E-03  0.771510479990E-03
  0.796598072320E-03  0.822501450184E-03  0.849247140853E-03  0.876862534198E-03  0.905375910732E-03
  0.934816470577E-03  0.965214363364E-03  0.996600719112E-03  0.102900768010E-02  0.106246843379E-02
  0.109701724681E-02  0.113268950003E-02  0.116952172485E-02  0.120755164051E-02  0.124681819283E-02
  0.128736159401E-02  0.132922336383E-02  0.137244637220E-02  0.141707488302E-02  0.146315459952E-02
  0.151073271108E-02  0.155985794152E-02  0.161058059903E-02  0.166295262767E-02  0.171702766054E-02
  0.177286107475E-02  0.183051004809E-02  0.189003361758E-02  0.195149273995E-02  0.201495035404E-02
  0.208047144523E-02  0.214812311204E-02  0.221797463479E-02  0.229009754654E-02  0.236456570636E-02
  0.244145537497E-02  0.252084529277E-02  0.260281676051E-02  0.268745372256E-02  0.277484285277E-02
  0.286507364333E-02  0.295823849629E-02  0.305443281827E-02  0.315375511806E-02  0.325630710752E-02
  0.336219380571E-02  0.347152364641E-02  0.358440858912E-02  0.370096423371E-02  0.382130993873E-02
  0.394556894363E-02  0.407386849489E-02  0.420633997633E-02  0.434311904355E-02  0.448434576282E-02
  0.463016475444E-02  0.478072534078E-02  0.493618169910E-02  0.509669301935E-02  0.526242366713E-02
  0.543354335185E-02  0.561022730042E-02  0.579265643660E-02  0.598101756610E-02  0.617550356772E-02
  0.637631359070E-02  0.658365325848E-02  0.679773487907E-02  0.701877766218E-02  0.724700794350E-02
  0.748265941619E-02  0.772597336985E-02  0.797719893729E-02  0.823659334931E-02  0.850442219764E-02
  0.878095970651E-02  0.906648901292E-02  0.936130245608E-02  0.966570187613E-02  0.997999892257E-02
  0.103045153727E-01  0.106395834601E-01  0.109855462145E-01  0.113427578113E-01  0.117115839337E-01
  0.120924021458E-01  0.124856022781E-01  0.128915868249E-01  0.133107713549E-01  0.137435849354E-01
  0.141904705693E-01  0.146518856467E-01  0.151283024109E-01  0.156202084397E-01  0.161281071411E-01
  0.166525182665E-01  0.171939784388E-01  0.177530416984E-01  0.183302800662E-01  0.189262841247E-01
  0.195416636178E-01  0.201770480693E-01  0.208330874216E-01  0.215104526943E-01  0.222098366635E-01
  0.229319545636E-01  0.236775448098E-01  0.244473697449E-01  0.252422164084E-01  0.260628973302E-01
  0.269102513498E-01  0.277851444599E-01  0.286884706770E-01  0.296211529395E-01  0.305841440322E-01
  0.315784275413E-01  0.326050188366E-01  0.336649660857E-01  0.347593512983E-01  0.358892914019E-01
  0.370559393507E-01  0.382604852678E-01  0.395041576207E-01  0.407882244333E-01  0.421139945320E-01
  0.434828188298E-01  0.448960916469E-01  0.463552520695E-01  0.478617853485E-01  0.494172243362E-01
  0.510231509649E-01  0.526811977655E-01  0.543930494284E-01  0.561604444062E-01  0.579851765591E-01
  0.598690968441E-01  0.618141150472E-01  0.638222015593E-01  0.658953891970E-01  0.680357750662E-01
  0.702455224707E-01  0.725268628643E-01  0.748820978459E-01  0.773136011976E-01  0.798238209646E-01
  0.824152815759E-01  0.850905860048E-01  0.878524179664E-01  0.907035441518E-01  0.936468164950E-01
  0.966851744706E-01  0.998216474186E-01  0.103059356893E+00  0.106401519028E+00  0.109851446922E+00
  0.113412553020E+00  0.117088351513E+00  0.120882460714E+00  0.124798605433E+00  0.128840619318E+00
  0.133012447167E+00  0.137318147193E+00  0.141761893219E+00  0.146347976809E+00  0.151080809300E+00
  0.155964923717E+00  0.161004976567E+00  0.166205749460E+00  0.171572150562E+00  0.177109215827E+00
  0.182822109987E+00  0.188716127265E+00  0.194796691761E+00  0.201069357487E+00  0.207539807982E+00
  0.214213855467E+00  0.221097439481E+00  0.228196624925E+00  0.235517599460E+00  0.243066670158E+00
  0.250850259345E+00  0.258874899533E+00  0.267147227326E+00  0.275673976216E+00  0.284461968124E+00
  0.293518103556E+00  0.302849350245E+00  0.312462730097E+00  0.322365304286E+00  0.332564156307E+00
  0.343066372777E+00  0.353879021771E+00  0.365009128457E+00  0.376463647762E+00  0.388249433805E+00
  0.400373205790E+00  0.412841510047E+00  0.425660677866E+00  0.438836778782E+00  0.452375568893E+00
  0.466282433832E+00  0.480562325923E+00  0.495219695099E+00  0.510258413079E+00  0.525681690312E+00
  0.541491985188E+00  0.557690904962E+00  0.574279097891E+00  0.591256136012E+00  0.608620388063E+00
  0.626368882004E+00  0.644497156675E+00  0.662999102129E+00  0.681866788257E+00  0.701090281410E+00
  0.720657448797E+00  0.740553750605E+00  0.760762019925E+00  0.781262230792E+00  0.802031254888E+00
  0.823042607749E+00  0.844266185689E+00  0.865667995068E+00  0.887209876011E+00  0.908849223289E+00
  0.930538707691E+00  0.952226001994E+00  0.973853516483E+00  0.995358149896E+00  0.101667106275E+01
  0.103771748113E+01  0.105841654027E+01  0.107868117856E+01  0.109841809393E+01  0.111752777605E+01
  0.113590462904E+01  0.115343720053E+01  0.117000853427E+01  0.118549666385E+01  0.119977526579E+01
  0.121271448957E+01  0.122418198156E+01  0.123404411713E+01  0.124216745193E+01  0.124842039825E+01
  0.125267512471E+01  0.125480966805E+01  0.125471023314E+01  0.125227364126E+01  0.124740986714E+01
  0.124004458200E+01  0.123012159170E+01  0.121760502835E+01  0.120248111808E+01  0.118475931097E+01
  0.116447252090E+01  0.114167618667E+01  0.111644583565E+01  0.108887281059E+01  0.105905781756E+01
  0.102710197526E+01  0.993095103523E+00  0.957101094214E+00  0.919137023555E+00  0.879248328914E+00
  0.837744495328E+00  0.795010598363E+00  0.751424880904E+00  0.707354460142E+00  0.663151435114E+00
  0.619149394096E+00  0.575660347335E+00  0.532972092694E+00  0.491346015016E+00  0.451015317645E+00
  0.412183686514E+00  0.375024393973E+00  0.339679856175E+00  0.306261662867E+00  0.274851096968E+00
  0.245500151070E+00  0.218233029731E+00  0.193048101386E+00  0.169920237654E+00  0.148803454886E+00
  0.129633757224E+00  0.112332074235E+00  0.968071894744E-01  0.829585677231E-01  0.706790060446E-01
  0.598570546476E-01  0.503791754884E-01  0.421316271903E-01  0.350020820645E-01  0.288809931081E-01
  0.236627349644E-01  0.192465432533E-01  0.155372728808E-01  0.124459901178E-01  0.989040767044E-02
  0.779516833058E-02  0.609198185326E-02  0.471962128293E-02  0.362378826583E-02  0.275686090580E-02
  0.207754149449E-02  0.155042427987E-02  0.114550495393E-02  0.837653656425E-03  0.606072132115E-03
  0.433753502441E-03  0.306960235585E-03  0.214732639455E-03  0.148436848746E-03  0.101358064231E-03
  0.683419047636E-04  0.454842641240E-04
 ae wavefunction
 -0.243465150019E-02 -0.251103632889E-02 -0.258980833663E-02 -0.267104153429E-02 -0.275481218930E-02
 -0.284119889199E-02 -0.293028262381E-02 -0.302214682734E-02 -0.311687747819E-02 -0.321456315876E-02
 -0.331529513398E-02 -0.341916742902E-02 -0.352627690894E-02 -0.363672336044E-02 -0.375060957565E-02
 -0.386804143805E-02 -0.398912801046E-02 -0.411398162520E-02 -0.424271797656E-02 -0.437545621528E-02
 -0.451231904538E-02 -0.465343282330E-02 -0.479892765919E-02 -0.494893752066E-02 -0.510360033865E-02
 -0.526305811585E-02 -0.542745703727E-02 -0.559694758337E-02 -0.577168464521E-02 -0.595182764241E-02
 -0.613754064301E-02 -0.632899248599E-02 -0.652635690594E-02 -0.672981266007E-02 -0.693954365751E-02
 -0.715573909082E-02 -0.737859356972E-02 -0.760830725690E-02 -0.784508600595E-02 -0.808914150128E-02
 -0.834069139992E-02 -0.859995947522E-02 -0.886717576218E-02 -0.914257670439E-02 -0.942640530248E-02
 -0.971891126381E-02 -0.100203511533E-01 -0.103309885451E-01 -0.106510941755E-01 -0.109809460953E-01
 -0.113208298238E-01 -0.116710385015E-01 -0.120318730435E-01 -0.124036422912E-01 -0.127866631644E-01
 -0.131812608104E-01 -0.135877687526E-01 -0.140065290361E-01 -0.144378923707E-01 -0.148822182709E-01
 -0.153398751915E-01 -0.158112406588E-01 -0.162967013973E-01 -0.167966534493E-01 -0.173115022890E-01
 -0.178416629282E-01 -0.183875600138E-01 -0.189496279164E-01 -0.195283108078E-01 -0.201240627269E-01
 -0.207373476338E-01 -0.213686394486E-01 -0.220184220759E-01 -0.226871894116E-01 -0.233754453322E-01
 -0.240837036632E-01 -0.248124881259E-01 -0.255623322611E-01 -0.263337793264E-01 -0.271273821658E-01
 -0.279437030494E-01 -0.287833134803E-01 -0.296467939669E-01 -0.305347337565E-01 -0.314477305293E-01
 -0.323863900478E-01 -0.333513257598E-01 -0.343431583505E-01 -0.353625152410E-01 -0.364100300287E-01
 -0.374863418662E-01 -0.385920947733E-01 -0.397279368791E-01 -0.408945195884E-01 -0.420924966678E-01
 -0.433225232462E-01 -0.445852547240E-01 -0.458813455858E-01 -0.472114481095E-01 -0.485762109673E-01
 -0.499762777087E-01 -0.514122851231E-01 -0.528848614698E-01 -0.543946245720E-01 -0.559421797643E-01
 -0.575281176864E-01 -0.591530119146E-01 -0.608174164219E-01 -0.625218628579E-01 -0.642668576387E-01
 -0.660528788369E-01 -0.678803728623E-01 -0.697497509224E-01 -0.716613852524E-01 -0.736156051032E-01
 -0.756126924779E-01 -0.776528776032E-01 -0.797363341270E-01 -0.818631740289E-01 -0.840334422321E-01
 -0.862471109068E-01 -0.885040734515E-01 -0.908041381429E-01 -0.931470214417E-01 -0.955323409444E-01
 -0.979596079710E-01 -0.100428219778E+00 -0.102937451388E+00 -0.105486447029E+00 -0.108074211172E+00
 -0.110699599164E+00 -0.113361307458E+00 -0.116057863414E+00 -0.118787614706E+00 -0.121548718294E+00
 -0.124339129003E+00 -0.127156587681E+00 -0.129998608972E+00 -0.132862468696E+00 -0.135745190861E+00
 -0.138643534324E+00 -0.141553979129E+00 -0.144472712540E+00 -0.147395614816E+00 -0.150318244766E+00
 -0.153235825118E+00 -0.156143227779E+00 -0.159034959026E+00 -0.161905144708E+00 -0.164747515542E+00
 -0.167555392586E+00 -0.170321672987E+00 -0.173038816119E+00 -0.175698830236E+00 -0.178293259765E+00
 -0.180813173397E+00 -0.183249153142E+00 -0.185591284505E+00 -0.187829148009E+00 -0.189951812244E+00
 -0.191947828691E+00 -0.193805228551E+00 -0.195511521851E+00 -0.197053699101E+00 -0.198418235811E+00
 -0.199591100173E+00 -0.200557764258E+00 -0.201303219077E+00 -0.201811993884E+00 -0.202068180104E+00
 -0.202055460309E+00 -0.201757142643E+00 -0.201156201148E+00 -0.200235322435E+00 -0.198976959143E+00
 -0.197363390649E+00 -0.195376791500E+00 -0.192999308001E+00 -0.190213143421E+00 -0.187000652243E+00
 -0.183344443859E+00 -0.179227496112E+00 -0.174633278998E+00 -0.169545888844E+00 -0.163950193198E+00
 -0.157831986586E+00 -0.151178157248E+00 -0.143976864824E+00 -0.136217728907E+00 -0.127892028207E+00
 -0.118992909969E+00 -0.109515609115E+00 -0.994576764227E-01 -0.888192148323E-01 -0.776031227969E-01
 -0.658153433324E-01 -0.534651171801E-01 -0.405652382278E-01 -0.271323090551E-01 -0.131869941956E-01
  0.124573154418E-02  0.161363425911E-01  0.314505329792E-01  0.471490007510E-01  0.631872496290E-01
  0.795154113219E-01  0.960780920529E-01  0.112814247317E+00  0.129657089498E+00  0.146534033766E+00
  0.163366688512E+00  0.180070897248E+00  0.196556839345E+00  0.212729196950E+00  0.228487394988E+00
  0.243725920264E+00  0.258334724543E+00  0.272199715397E+00  0.285203337723E+00  0.297225248214E+00
  0.308143084537E+00  0.317833330280E+00  0.326172275808E+00  0.333037073968E+00  0.338306888237E+00
  0.341864129405E+00  0.343595775348E+00  0.343394766750E+00  0.341161469870E+00  0.336805195556E+00
  0.330245761665E+00  0.321415083917E+00  0.310258778007E+00  0.296737753536E+00  0.280829778085E+00
  0.262530987574E+00  0.241857317101E+00  0.218845824672E+00  0.193555878927E+00  0.166070181039E+00
  0.136495590658E+00  0.104963725900E+00  0.716313080424E-01  0.366802225855E-01  0.317269774643E-03
 -0.372264199410E-01 -0.756963253361E-01 -0.114815839120E+00 -0.154287931598E+00 -0.193797142903E+00
 -0.233011848798E+00 -0.271586735730E+00 -0.309165446798E+00 -0.345383430367E+00 -0.379871113401E+00
 -0.412257561396E+00 -0.442174696492E+00 -0.469261945107E+00 -0.493171036453E+00 -0.513570699727E+00
 -0.530151143864E+00 -0.542628305158E+00 -0.550747863875E+00 -0.554288999217E+00 -0.553067816766E+00
 -0.546940366031E+00 -0.535805169856E+00 -0.519605205061E+00 -0.498329297923E+00 -0.472012920320E+00
 -0.440738391031E+00 -0.404634499929E+00 -0.363875582020E+00 -0.318680073774E+00 -0.269308587083E+00
 -0.216061537094E+00 -0.159276359023E+00 -0.993243478380E-01 -0.366071522804E-01  0.284470457282E-01
  0.953876353896E-01  0.163745930990E+00  0.233039736641E+00  0.302778075829E+00  0.372466032217E+00
  0.441609642679E+00  0.509720782712E+00  0.576321990670E+00  0.640951191914E+00  0.703166298968E+00
  0.762549669442E+00  0.818712376069E+00  0.871298162008E+00  0.919986814687E+00  0.964496544100E+00
  0.100458492800E+01  0.104004825667E+01  0.107071971502E+01  0.109646749282E+01  0.111719408716E+01
  0.113283744712E+01  0.114337357659E+01  0.114881947750E+01  0.114923534954E+01  0.114472544631E+01
  0.113543752937E+01  0.112156113908E+01  0.110332494518E+01  0.108099338838E+01  0.105486276346E+01
  0.102525685297E+01  0.992522216195E+00  0.957023233680E+00  0.919137023555E+00  0.879248328914E+00
  0.837744495328E+00  0.795010598363E+00  0.751424880904E+00  0.707354460142E+00  0.663151435114E+00
  0.619149394096E+00  0.575660347335E+00  0.532972092694E+00  0.491346015016E+00  0.451015317645E+00
  0.412183686514E+00  0.375024393973E+00  0.339679856175E+00  0.306261662867E+00  0.274851096968E+00
  0.245500151070E+00  0.218233029731E+00  0.193048101386E+00  0.169920237654E+00  0.148803454886E+00
  0.129633757224E+00  0.112332074235E+00  0.968071894744E-01  0.829585677231E-01  0.706790060446E-01
  0.598570546476E-01  0.503791754884E-01  0.421316271903E-01  0.350020820645E-01  0.288809931081E-01
  0.236627349644E-01  0.192465432533E-01  0.155372728808E-01  0.124459901178E-01  0.989040767044E-02
  0.779516833058E-02  0.609198185326E-02  0.471962128293E-02  0.362378826583E-02  0.275686090580E-02
  0.207754149449E-02  0.155042427987E-02  0.114550495393E-02  0.837653656425E-03  0.606072132115E-03
  0.433753502441E-03  0.306960235585E-03  0.214732639455E-03  0.148436848746E-03  0.101358064231E-03
  0.683419047636E-04  0.454842641240E-04
 pseudo wavefunction
  0.185907996343E-03  0.191953260560E-03  0.198195101684E-03  0.204639911905E-03  0.211294291272E-03
  0.218165054450E-03  0.225259237701E-03  0.232584106086E-03  0.240147160910E-03  0.247956147402E-03
  0.256019062644E-03  0.264344163766E-03  0.272939976398E-03  0.281815303400E-03  0.290979233883E-03
  0.300441152509E-03  0.310210749109E-03  0.320298028601E-03  0.330713321238E-03  0.341467293188E-03
  0.352570957456E-03  0.364035685159E-03  0.375873217179E-03  0.388095676178E-03  0.400715579019E-03
  0.413745849581E-03  0.427199831994E-03  0.441091304306E-03  0.455434492594E-03  0.470244085528E-03
  0.485535249419E-03  0.501323643748E-03  0.517625437200E-03  0.534457324227E-03  0.551836542142E-03
  0.569780888771E-03  0.588308740680E-03  0.607439071994E-03  0.627191473829E-03  0.647586174353E-03
  0.668644059504E-03  0.690386694374E-03  0.712836345300E-03  0.736016002660E-03  0.759949404421E-03
  0.784661060448E-03  0.810176277603E-03  0.836521185660E-03  0.863722764068E-03  0.891808869574E-03
  0.920808264757E-03  0.950750647476E-03  0.981666681290E-03  0.101358802685E-02  0.104654737434E-02
  0.108057847692E-02  0.111571618533E-02  0.115199648356E-02  0.118945652571E-02  0.122813467400E-02
  0.126807053811E-02  0.130930501573E-02  0.135188033439E-02  0.139584009479E-02  0.144122931535E-02
  0.148809447842E-02  0.153648357777E-02  0.158644616783E-02  0.163803341437E-02  0.169129814695E-02
  0.174629491296E-02  0.180308003353E-02  0.186171166118E-02  0.192224983938E-02  0.198475656402E-02
  0.204929584691E-02  0.211593378130E-02  0.218473860963E-02  0.225578079331E-02  0.232913308497E-02
  0.240487060288E-02  0.248307090791E-02  0.256381408296E-02  0.264718281492E-02  0.273326247937E-02
  0.282214122800E-02  0.291391007886E-02  0.300866300956E-02  0.310649705350E-02  0.320751239920E-02
  0.331181249293E-02  0.341950414457E-02  0.353069763703E-02  0.364550683911E-02  0.376404932212E-02
  0.388644648021E-02  0.401282365472E-02  0.414331026243E-02  0.427803992812E-02  0.441715062131E-02
  0.456078479754E-02  0.470908954420E-02  0.486221673107E-02  0.502032316581E-02  0.518357075448E-02
  0.535212666722E-02  0.552616350941E-02  0.570585949830E-02  0.589139864541E-02  0.608297094490E-02
  0.628077256796E-02  0.648500606357E-02  0.669588056581E-02  0.691361200781E-02  0.713842334272E-02
  0.737054477179E-02  0.761021397995E-02  0.785767637889E-02  0.811318535814E-02  0.837700254425E-02
  0.864939806838E-02  0.893065084255E-02  0.922104884487E-02  0.952088941398E-02  0.983047955309E-02
  0.101501362438E-01  0.104801867700E-01  0.108209690527E-01  0.111728319950E-01  0.115361358387E-01
  0.119112525324E-01  0.122985661114E-01  0.126984730898E-01  0.131113828657E-01  0.135377181385E-01
  0.139779153412E-01  0.144324250851E-01  0.149017126197E-01  0.153862583074E-01  0.158865581132E-01
  0.164031241101E-01  0.169364850014E-01  0.174871866589E-01  0.180557926789E-01  0.186428849563E-01
  0.192490642762E-01  0.198749509254E-01  0.205211853231E-01  0.211884286713E-01  0.218773636272E-01
  0.225886949952E-01  0.233231504431E-01  0.240814812388E-01  0.248644630128E-01  0.256728965423E-01
  0.265076085626E-01  0.273694526021E-01  0.282593098451E-01  0.291780900208E-01  0.301267323205E-01
  0.311062063437E-01  0.321175130737E-01  0.331616858832E-01  0.342397915715E-01  0.353529314341E-01
  0.365022423643E-01  0.376888979896E-01  0.389141098426E-01  0.401791285675E-01  0.414852451632E-01
  0.428337922641E-01  0.442261454590E-01  0.456637246502E-01  0.471479954520E-01  0.486804706309E-01
  0.502627115881E-01  0.518963298849E-01  0.535829888119E-01  0.553244050034E-01  0.571223500971E-01
  0.589786524407E-01  0.608951988450E-01  0.628739363857E-01  0.649168742533E-01  0.670260856520E-01
  0.692037097489E-01  0.714519536724E-01  0.737730945613E-01  0.761694816645E-01  0.786435384909E-01
  0.811977650096E-01  0.838347399007E-01  0.865571228547E-01  0.893676569213E-01  0.922691709054E-01
  0.952645818103E-01  0.983568973242E-01  0.101549218351E+00  0.104844741580E+00  0.108246762095E+00
  0.111758676014E+00  0.115383983162E+00  0.119126289769E+00  0.122989311184E+00  0.126976874613E+00
  0.131092921850E+00  0.135341512018E+00  0.139726824301E+00  0.144253160644E+00  0.148924948436E+00
  0.153746743144E+00  0.158723230881E+00  0.163859230912E+00  0.169159698059E+00  0.174629724995E+00
  0.180274544406E+00  0.186099530986E+00  0.192110203251E+00  0.198312225129E+00  0.204711407301E+00
  0.211313708249E+00  0.218125234968E+00  0.225152243302E+00  0.232401137851E+00  0.239878471383E+00
  0.247590943708E+00  0.255545399917E+00  0.263748827944E+00  0.272208355338E+00  0.280931245174E+00
  0.289924890985E+00  0.299196810630E+00  0.308754638945E+00  0.318606119076E+00  0.328759092328E+00
  0.339221486386E+00  0.350001301728E+00  0.361106596044E+00  0.372545466466E+00  0.384326029370E+00
  0.396456397536E+00  0.408944654372E+00  0.421798824951E+00  0.435026843540E+00  0.448636517294E+00
  0.462635485769E+00  0.477031175867E+00  0.491830751812E+00  0.507041059719E+00  0.522668566298E+00
  0.538719291204E+00  0.555198732505E+00  0.572111784736E+00  0.589462648952E+00  0.607254734198E+00
  0.625490549765E+00  0.644171587607E+00  0.663298194265E+00  0.682869431654E+00  0.702882926051E+00
  0.723334704666E+00  0.744219019180E+00  0.765528155681E+00  0.787252230516E+00  0.809378971623E+00
  0.831893485062E+00  0.854778006575E+00  0.878011638212E+00  0.901570070276E+00  0.925425289112E+00
  0.949545271624E+00  0.973893667756E+00  0.998429472699E+00  0.102310669109E+01  0.104787399617E+01
  0.107267438745E+01  0.109744485162E+01  0.112211603186E+01  0.114661191231E+01  0.117084952534E+01
  0.119473869042E+01  0.121818179526E+01  0.124107363079E+01  0.126330129342E+01  0.128474416943E+01
  0.130527401796E+01  0.132475517016E+01  0.134304486350E+01  0.135999373106E+01  0.137544646563E+01
  0.138924267857E+01  0.140121797170E+01  0.141120523836E+01  0.141903620557E+01  0.142454322372E+01
  0.142756130186E+01  0.142793037626E+01  0.142549778597E+01  0.142012091181E+01  0.141166991447E+01
  0.140003048194E+01  0.138510646772E+01  0.136682226862E+01  0.134512475484E+01  0.131998452848E+01
  0.129139624957E+01  0.125937773602E+01  0.122396751937E+01  0.118522052740E+01  0.114320157586E+01
  0.109797639312E+01  0.104959998519E+01  0.998102286855E+00  0.943471249599E+00  0.885717058910E+00
  0.825128416315E+00  0.762055369516E+00  0.696824267306E+00  0.000000000000E+00  0.000000000000E+00
  0.000000000000E+00  0.000000000000E+00  0.000000000000E+00  0.000000000000E+00  0.000000000000E+00
  0.000000000000E+00  0.000000000000E+00  0.000000000000E+00  0.000000000000E+00  0.000000000000E+00
  0.000000000000E+00  0.000000000000E+00  0.000000000000E+00  0.000000000000E+00  0.000000000000E+00
  0.000000000000E+00  0.000000000000E+00  0.000000000000E+00  0.000000000000E+00  0.000000000000E+00
  0.000000000000E+00  0.000000000000E+00  0.000000000000E+00  0.000000000000E+00  0.000000000000E+00
  0.000000000000E+00  0.000000000000E+00  0.000000000000E+00  0.000000000000E+00  0.000000000000E+00
  0.000000000000E+00  0.000000000000E+00  0.000000000000E+00  0.000000000000E+00  0.000000000000E+00
  0.000000000000E+00  0.000000000000E+00  0.000000000000E+00  0.000000000000E+00  0.000000000000E+00
  0.000000000000E+00  0.000000000000E+00  0.000000000000E+00  0.000000000000E+00  0.000000000000E+00
  0.000000000000E+00  0.000000000000E+00
 ae wavefunction
 -0.279151270619E-02 -0.287909370839E-02 -0.296941179241E-02 -0.306255181735E-02 -0.315860122959E-02
 -0.325765013890E-02 -0.335979139664E-02 -0.346512067607E-02 -0.357373655472E-02 -0.368574059903E-02
 -0.380123745116E-02 -0.392033491809E-02 -0.404314406294E-02 -0.416977929873E-02 -0.430035848441E-02
 -0.443500302343E-02 -0.457383796453E-02 -0.471699210527E-02 -0.486459809787E-02 -0.501679255769E-02
 -0.517371617418E-02 -0.533551382456E-02 -0.550233468997E-02 -0.567433237438E-02 -0.585166502608E-02
 -0.603449546188E-02 -0.622299129396E-02 -0.641732505954E-02 -0.661767435293E-02 -0.682422196078E-02
 -0.703715599951E-02 -0.725667005576E-02 -0.748296332936E-02 -0.771624077897E-02 -0.795671327028E-02
 -0.820459772688E-02 -0.846011728348E-02 -0.872350144173E-02 -0.899498622829E-02 -0.927481435532E-02
 -0.956323538304E-02 -0.986050588444E-02 -0.101668896120E-01 -0.104826576662E-01 -0.108080886654E-01
 -0.111434689180E-01 -0.114890925950E-01 -0.118452619041E-01 -0.122122872646E-01 -0.125904874829E-01
 -0.129801899282E-01 -0.133817307082E-01 -0.137954548446E-01 -0.142217164473E-01 -0.146608788885E-01
 -0.151133149742E-01 -0.155794071138E-01 -0.160595474877E-01 -0.165541382110E-01 -0.170635914940E-01
 -0.175883297975E-01 -0.181287859838E-01 -0.186854034613E-01 -0.192586363222E-01 -0.198489494727E-01
 -0.204568187548E-01 -0.210827310579E-01 -0.217271844200E-01 -0.223906881171E-01 -0.230737627386E-01
 -0.237769402489E-01 -0.245007640327E-01 -0.252457889221E-01 -0.260125812055E-01 -0.268017186141E-01
 -0.276137902866E-01 -0.284493967080E-01 -0.293091496221E-01 -0.301936719131E-01 -0.311035974571E-01
 -0.320395709376E-01 -0.330022476244E-01 -0.339922931123E-01 -0.350103830158E-01 -0.360572026182E-01
 -0.371334464697E-01 -0.382398179316E-01 -0.393770286638E-01 -0.405457980489E-01 -0.417468525508E-01
 -0.429809250026E-01 -0.442487538176E-01 -0.455510821207E-01 -0.468886567920E-01 -0.482622274194E-01
 -0.496725451520E-01 -0.511203614501E-01 -0.526064267232E-01 -0.541314888506E-01 -0.556962915760E-01
 -0.573015727696E-01 -0.589480625496E-01 -0.606364812533E-01 -0.623675372510E-01 -0.641419245934E-01
 -0.659603204813E-01 -0.678233825499E-01 -0.697317459568E-01 -0.716860202628E-01 -0.736867860952E-01
 -0.757345915821E-01 -0.778299485461E-01 -0.799733284463E-01 -0.821651580549E-01 -0.844058148579E-01
 -0.866956221654E-01 -0.890348439203E-01 -0.914236791909E-01 -0.938622563351E-01 -0.963506268232E-01
 -0.988887587053E-01 -0.101476529711E+00 -0.104113719966E+00 -0.106800004320E+00 -0.109534944262E+00
 -0.112317979423E+00 -0.115148418646E+00 -0.118025430619E+00 -0.120948034058E+00 -0.123915087429E+00
 -0.126925278214E+00 -0.129977111697E+00 -0.133068899285E+00 -0.136198746343E+00 -0.139364539568E+00
 -0.142563933878E+00 -0.145794338844E+00 -0.149052904664E+00 -0.152336507693E+00 -0.155641735555E+00
 -0.158964871843E+00 -0.162301880453E+00 -0.165648389574E+00 -0.168999675374E+00 -0.172350645434E+00
 -0.175695821977E+00 -0.179029324961E+00 -0.182344855100E+00 -0.185635676897E+00 -0.188894601784E+00
 -0.192113971459E+00 -0.195285641550E+00 -0.198400965718E+00 -0.201450780348E+00 -0.204425389986E+00
 -0.207314553677E+00 -0.210107472412E+00 -0.212792777875E+00 -0.215358522707E+00 -0.217792172548E+00
 -0.220080600092E+00 -0.222210081455E+00 -0.224166295151E+00 -0.225934323988E+00 -0.227498660250E+00
 -0.228843214502E+00 -0.229951328435E+00 -0.230805792132E+00 -0.231388866204E+00 -0.231682309227E+00
 -0.231667410969E+00 -0.231325031869E+00 -0.230635649279E+00 -0.229579410978E+00 -0.228136196479E+00
 -0.226285686654E+00 -0.224007442195E+00 -0.221280991455E+00 -0.218085928154E+00 -0.214402019457E+00
 -0.210209324905E+00 -0.205488326605E+00 -0.200220071107E+00 -0.194386323274E+00 -0.187969732442E+00
 -0.180954011053E+00 -0.173324125867E+00 -0.165066501752E+00 -0.156169237913E+00 -0.146622336321E+00
 -0.136417941883E+00 -0.125550593783E+00 -0.114017487175E+00 -0.101818744215E+00 -0.889576931677E-01
 -0.754411540585E-01 -0.612797290440E-01 -0.464880953801E-01 -0.310852985375E-01 -0.150950427050E-01
  0.145402437160E-02  0.185280355182E-01  0.360876407198E-01  0.540877597907E-01  0.724773548468E-01
  0.911992264402E-01  0.110189837473E+00  0.129379169483E+00  0.148690616625E+00  0.168040923553E+00
  0.187340174393E+00  0.206491840755E+00  0.225392897234E+00  0.243934012839E+00  0.261999826262E+00
  0.279469311896E+00  0.296216242212E+00  0.312109750832E+00  0.327014999651E+00  0.340793952629E+00
  0.353306258282E+00  0.364410242083E+00  0.373964008967E+00  0.381826654725E+00  0.387859583540E+00
  0.391927927192E+00  0.393902059708E+00  0.393659199265E+00  0.391085087164E+00  0.386075731470E+00
  0.378539200623E+00  0.368397449842E+00  0.355588160617E+00  0.340066570997E+00  0.321807271813E+00
  0.300805941439E+00  0.277080989500E+00  0.250675077833E+00  0.221656485549E+00  0.190120283940E+00
  0.156189286622E+00  0.120014740457E+00  0.817767235213E-01  0.416842175459E-01 -0.251761182720E-04
 -0.430859052453E-01 -0.872055430150E-01 -0.132066283859E+00 -0.177326851708E+00 -0.222624785890E+00
 -0.267579041742E+00 -0.311792832321E+00 -0.354856667503E+00 -0.396351627161E+00 -0.435853008725E+00
 -0.472934534943E+00 -0.507173203922E+00 -0.538154633721E+00 -0.565478581846E+00 -0.588764350475E+00
 -0.607655944399E+00 -0.621826964974E+00 -0.630985241384E+00 -0.634877164054E+00 -0.633291644572E+00
 -0.626063607583E+00 -0.613076924838E+00 -0.594266721822E+00 -0.569621015115E+00 -0.539181664140E+00
 -0.503044642264E+00 -0.461359647414E+00 -0.414329082811E+00 -0.362206444730E+00 -0.305294157365E+00
 -0.243940895948E+00 -0.178538437809E+00 -0.109518079680E+00 -0.373466567287E-01  0.374778017188E-01
  0.114430744901E+00  0.192966063311E+00  0.272521297233E+00  0.352523038822E+00  0.432392466580E+00
  0.511550944793E+00  0.589425619428E+00  0.665454949175E+00  0.739094126975E+00  0.809820364349E+00
  0.877138016822E+00  0.940583496682E+00  0.999729825579E+00  0.105419051918E+01  0.110362232878E+01
  0.114772634146E+01  0.118624725419E+01  0.121897133149E+01  0.124572429779E+01  0.126637060121E+01
  0.128081476977E+01  0.128900439549E+01  0.129093345024E+01  0.128664468674E+01  0.127623043753E+01
  0.125983174157E+01  0.123763604175E+01  0.120987374139E+01  0.117681384597E+01  0.113875884478E+01
  0.109603893735E+01  0.104900570117E+01  0.998025288327E+00  0.943471249599E+00  0.885717058910E+00
  0.825128416315E+00  0.762055369516E+00  0.696824267306E+00  0.000000000000E+00  0.000000000000E+00
  0.000000000000E+00  0.000000000000E+00  0.000000000000E+00  0.000000000000E+00  0.000000000000E+00
  0.000000000000E+00  0.000000000000E+00  0.000000000000E+00  0.000000000000E+00  0.000000000000E+00
  0.000000000000E+00  0.000000000000E+00  0.000000000000E+00  0.000000000000E+00  0.000000000000E+00
  0.000000000000E+00  0.000000000000E+00  0.000000000000E+00  0.000000000000E+00  0.000000000000E+00
  0.000000000000E+00  0.000000000000E+00  0.000000000000E+00  0.000000000000E+00  0.000000000000E+00
  0.000000000000E+00  0.000000000000E+00  0.000000000000E+00  0.000000000000E+00  0.000000000000E+00
  0.000000000000E+00  0.000000000000E+00  0.000000000000E+00  0.000000000000E+00  0.000000000000E+00
  0.000000000000E+00  0.000000000000E+00  0.000000000000E+00  0.000000000000E+00  0.000000000000E+00
  0.000000000000E+00  0.000000000000E+00  0.000000000000E+00  0.000000000000E+00  0.000000000000E+00
  0.000000000000E+00  0.000000000000E+00
 pseudo wavefunction
  0.956571442021E-08  0.101979354294E-07  0.108719414414E-07  0.115904941270E-07  0.123565376828E-07
  0.131732108942E-07  0.140438599965E-07  0.149720523859E-07  0.159615912359E-07  0.170165310814E-07
  0.181411944307E-07  0.193401894775E-07  0.206184289817E-07  0.219811503995E-07  0.234339373429E-07
  0.249827424584E-07  0.266339118170E-07  0.283942109168E-07  0.302708524038E-07  0.322715256251E-07
  0.344044281351E-07  0.366782992842E-07  0.391024560274E-07  0.416868310993E-07  0.444420137130E-07
  0.473792929478E-07  0.505107040051E-07  0.538490775219E-07  0.574080921423E-07  0.612023305646E-07
  0.652473392927E-07  0.695596923358E-07  0.741570591189E-07  0.790582768816E-07  0.842834278612E-07
  0.898539215782E-07  0.957925825591E-07  0.102123743858E-06  0.108873346757E-06  0.116069047061E-06
  0.123740328413E-06  0.131918623096E-06  0.140637440833E-06  0.149932506079E-06  0.159841904406E-06
  0.170406238549E-06  0.181668794776E-06  0.193675720245E-06  0.206476212089E-06  0.220122718996E-06
  0.234671156110E-06  0.250181134139E-06  0.266716203602E-06  0.284344115222E-06  0.303137097524E-06
  0.323172152786E-06  0.344531372545E-06  0.367302273959E-06  0.391578158400E-06  0.417458493741E-06
  0.445049321917E-06  0.474463693421E-06  0.505822130510E-06  0.539253121036E-06  0.574893644904E-06
  0.612889735336E-06  0.653397077217E-06  0.696581645003E-06  0.742620382770E-06  0.791701929230E-06
  0.844027390644E-06  0.899811164835E-06  0.959281819650E-06  0.102268302949E-05  0.109027457372E-05
  0.116233340111E-05  0.123915476453E-05  0.132105343079E-05  0.140836497027E-05  0.150144713191E-05
  0.160068130904E-05  0.170647410204E-05  0.181925898434E-05  0.193949807852E-05  0.206768404974E-05
  0.220434212438E-05  0.235003224203E-05  0.250535134977E-05  0.267093584804E-05  0.284746419811E-05
  0.303565970201E-05  0.323629346606E-05  0.345018756033E-05  0.367821838685E-05  0.392132027051E-05
  0.418048928719E-05  0.445678734491E-05  0.475134653477E-05  0.506537376935E-05  0.540015572765E-05
  0.575706412694E-05  0.613756134290E-05  0.654320640122E-05  0.697566136518E-05  0.743669814538E-05
  0.792820575943E-05  0.845219807151E-05  0.901082204329E-05  0.960636653022E-05  0.102412716590E-04
  0.109181388251E-04  0.116397413500E-04  0.124090358443E-04  0.132291743201E-04  0.141035171047E-04
  0.150356466077E-04  0.160293819971E-04  0.170887948461E-04  0.182182258132E-04  0.194223024246E-04
  0.207059580321E-04  0.220744520228E-04  0.235333913646E-04  0.250887535759E-04  0.267469112116E-04
  0.285146579681E-04  0.303992365127E-04  0.324083681512E-04  0.345502844565E-04  0.368337609854E-04
  0.392681532242E-04  0.418634349083E-04  0.446302388725E-04  0.475799006015E-04  0.507245046548E-04
  0.540769341604E-04  0.576509235755E-04  0.614611149337E-04  0.655231178052E-04  0.698535732181E-04
  0.744702218004E-04  0.793919764215E-04  0.846389996307E-04  0.902327862075E-04  0.961962511635E-04
  0.102553823552E-03  0.109331546473E-03  0.116557183674E-03  0.124260333192E-03  0.132472548493E-03
  0.141227467602E-03  0.150560950760E-03  0.160511227154E-03  0.171119051334E-03  0.182427869944E-03
  0.194483999442E-03  0.207336815550E-03  0.221038955187E-03  0.235646531712E-03  0.251219364355E-03
  0.267821222766E-03  0.285520087676E-03  0.304388428719E-03  0.324503500561E-03  0.345947658512E-03
  0.368808694920E-03  0.393180197694E-03  0.419161932410E-03  0.446860249551E-03  0.476388518508E-03
  0.507867590105E-03  0.541426289507E-03  0.577201941491E-03  0.615340930195E-03  0.655999295577E-03
  0.699343369001E-03  0.745550450456E-03  0.794809530144E-03  0.847322057300E-03  0.903302759297E-03
  0.962980514302E-03  0.102659928093E-02  0.109441908860E-02  0.116671709243E-02  0.124378869691E-02
  0.132594875271E-02  0.141353283130E-02  0.150689858236E-02  0.160642717932E-02  0.171252485846E-02
  0.182562455775E-02  0.194618766145E-02  0.207470585735E-02  0.221170311369E-02  0.235773778309E-02
  0.251340484160E-02  0.267933827114E-02  0.285621359421E-02  0.304475057028E-02  0.324571606358E-02
  0.345992709301E-02  0.368825407482E-02  0.393162426991E-02  0.419102544777E-02  0.446750978000E-02
  0.476219797673E-02  0.507628368017E-02  0.541103813001E-02  0.576781511610E-02  0.614805623469E-02
  0.655329646487E-02  0.698517008289E-02  0.744541693242E-02  0.793588906961E-02  0.845855780236E-02
  0.901552114387E-02  0.960901170080E-02  0.102414050173E-01  0.109152283956E-01  0.116331702159E-01
  0.123980897753E-01  0.132130276693E-01  0.140812167357E-01  0.150060935826E-01  0.159913107197E-01
  0.170407493126E-01  0.181585325762E-01  0.193490398241E-01  0.206169211859E-01  0.219671130019E-01
  0.234048539023E-01  0.249357015713E-01  0.265655501922E-01  0.283006485632E-01  0.301476188641E-01
  0.321134760480E-01  0.342056478181E-01  0.364319951389E-01  0.388008332168E-01  0.413209528675E-01
  0.440016421691E-01  0.468527082766E-01  0.498844992499E-01  0.531079257168E-01  0.565344821616E-01
  0.601762675910E-01  0.640460052890E-01  0.681570613234E-01  0.725234614169E-01  0.771599057323E-01
  0.820817810601E-01  0.873051698203E-01  0.928468552118E-01  0.987243217515E-01  0.104955750351E+00
  0.111560006968E+00  0.118556623760E+00  0.125965771536E+00  0.133808222174E+00  0.142105299534E+00
  0.150878817241E+00  0.160151001554E+00  0.169944397400E+00  0.180281755470E+00  0.191185898130E+00
  0.202679561753E+00  0.214785212938E+00  0.227524835979E+00  0.240919688854E+00  0.254990024977E+00
  0.269754777969E+00  0.285231206794E+00  0.301434498796E+00  0.318377328473E+00  0.336069370264E+00
  0.354516764237E+00  0.373721534403E+00  0.393680960413E+00  0.414386904778E+00  0.435825099380E+00
  0.457974397092E+00  0.480805996756E+00  0.504282652626E+00  0.528357882714E+00  0.552975194281E+00
  0.578067348967E+00  0.603555694709E+00  0.629349596615E+00  0.655346004113E+00  0.681429196848E+00
  0.707470756597E+00  0.733329816494E+00  0.758853641607E+00  0.783878595579E+00  0.808231545861E+00
  0.831731753868E+00  0.854193285003E+00  0.875427955393E+00  0.895248805905E+00  0.913474057856E+00
  0.929931457255E+00  0.944462854245E+00  0.956928790724E+00  0.967212782341E+00  0.975224882558E+00
  0.980904010175E+00  0.984218413823E+00  0.985163547768E+00  0.983756557356E+00  0.980026539650E+00
  0.973999781008E+00  0.965679310448E+00  0.955018382704E+00  0.941883617397E+00  0.926122263691E+00
  0.907824587069E+00  0.887171866708E+00  0.864357096377E+00  0.839582924494E+00  0.813059604795E+00
  0.785002985653E+00  0.755632519674E+00  0.725169296251E+00  0.693834072638E+00  0.661845285929E+00
  0.629417040157E+00  0.596757067527E+00  0.564064695608E+00  0.531528872729E+00  0.499326327761E+00
  0.467619957273E+00  0.436557529085E+00  0.406270778961E+00  0.376874947833E+00  0.348468770812E+00
  0.321134891066E+00  0.294940637099E+00  0.269939075143E+00  0.246170231510E+00  0.223662374253E+00
  0.202433249681E+00  0.182491187081E+00  0.163836013088E+00  0.146459752289E+00  0.130347127811E+00
  0.115475908275E+00  0.101817169663E+00  0.893355485611E-01  0.779895566081E-01  0.677320080941E-01
  0.585105884989E-01  0.502685670032E-01  0.429456348701E-01  0.364788365999E-01  0.308035525670E-01
  0.258544897833E-01  0.215666401275E-01  0.178761712390E-01  0.147212228577E-01  0.120425895306E-01
  0.978427848541E-02  0.789393855483E-02  0.632316204986E-02  0.502766629405E-02  0.396736516392E-02
  0.310634349502E-02  0.241274873364E-02
 ae wavefunction
  0.330145000027E-05  0.349557416464E-05  0.370046999017E-05  0.391677447260E-05  0.414516073164E-05
  0.438634018754E-05  0.464106486507E-05  0.491012983416E-05  0.519437579438E-05  0.549469181367E-05
  0.581201822973E-05  0.614734972467E-05  0.650173858482E-05  0.687629815543E-05  0.727220650349E-05
  0.769071030181E-05  0.813312894892E-05  0.860085893630E-05  0.909537848274E-05  0.961825244934E-05
  0.101711375549E-04  0.107557879086E-04  0.113740608803E-04  0.120279233299E-04  0.127194582196E-04
  0.134508716289E-04  0.142245002022E-04  0.150428190509E-04  0.159084501486E-04  0.168241712302E-04
  0.177929252527E-04  0.188178304297E-04  0.199021908896E-04  0.210495079891E-04  0.222634923290E-04
  0.235480765080E-04  0.249074286708E-04  0.263459668907E-04  0.278683744455E-04  0.294796160387E-04
  0.311849550272E-04  0.329899717175E-04  0.349005827965E-04  0.369230619701E-04  0.390640618812E-04
  0.413306373911E-04  0.437302703055E-04  0.462708956375E-04  0.489609295022E-04  0.518092987441E-04
  0.548254724051E-04  0.580194951474E-04  0.614020227520E-04  0.649843598204E-04  0.687784998172E-04
  0.727971675953E-04  0.770538645606E-04  0.815629166300E-04  0.863395251661E-04  0.913998210585E-04
  0.967609221508E-04  0.102440994215E-03  0.108459315693E-03  0.114836346417E-03  0.121593800578E-03
  0.128754724171E-03  0.136343577203E-03  0.144386320936E-03  0.152910510481E-03  0.161945393054E-03
  0.171522012221E-03  0.181673318510E-03  0.192434286735E-03  0.203842040456E-03  0.215935983969E-03
  0.228757942276E-03  0.242352309507E-03  0.256766206248E-03  0.272049646336E-03  0.288255713618E-03
  0.305440749268E-03  0.323664550247E-03  0.342990579541E-03  0.363486188826E-03  0.385222854263E-03
  0.408276426138E-03  0.432727393107E-03  0.458661161852E-03  0.486168352967E-03  0.515345113956E-03
  0.546293450236E-03  0.579121575121E-03  0.613944279744E-03  0.650883323976E-03  0.690067849410E-03
  0.731634815497E-03  0.775729460033E-03  0.822505785178E-03  0.872127070250E-03  0.924766412563E-03
  0.980607297686E-03  0.103984420042E-02  0.110268321795E-02  0.116934273660E-02  0.124005413364E-02
  0.131506251571E-02  0.139462749528E-02  0.147902400690E-02  0.156854316455E-02  0.166349316190E-02
  0.176420021700E-02  0.187100956289E-02  0.198428648585E-02  0.210441741274E-02  0.223181104899E-02
  0.236689956865E-02  0.251013985801E-02  0.266201481394E-02  0.282303469832E-02  0.299373854958E-02
  0.317469565233E-02  0.336650706573E-02  0.356980721144E-02  0.378526552115E-02  0.401358814402E-02
  0.425551971364E-02  0.451184517397E-02  0.478339166320E-02  0.507103045415E-02  0.537567894916E-02
  0.569830272702E-02  0.603991763861E-02  0.640159194763E-02  0.678444851137E-02  0.718966699633E-02
  0.761848612190E-02  0.807220592467E-02  0.855219003454E-02  0.905986795261E-02  0.959673731940E-02
  0.101643661605E-01  0.107643950948E-01  0.113985394891E-01  0.120685915409E-01  0.127764222676E-01
  0.135239833812E-01  0.143133090219E-01  0.151465173226E-01  0.160258117746E-01  0.169534823593E-01
  0.179319064103E-01  0.189635491645E-01  0.200509639585E-01  0.211967920221E-01  0.224037618180E-01
  0.236746878699E-01  0.250124690202E-01  0.264200860514E-01  0.279005986006E-01  0.294571412945E-01
  0.310929190228E-01  0.328112012671E-01  0.346153153944E-01  0.365086388207E-01  0.384945899444E-01
  0.405766177453E-01  0.427581899378E-01  0.450427795666E-01  0.474338499242E-01  0.499348376701E-01
  0.525491340253E-01  0.552800639168E-01  0.581308629409E-01  0.611046520180E-01  0.642044096106E-01
  0.674329413773E-01  0.707928471412E-01  0.742864850569E-01  0.779159328663E-01  0.816829461452E-01
  0.855889134543E-01  0.896348083259E-01  0.938211380335E-01  0.981478891155E-01  0.102614469652E+00
  0.107219648322E+00  0.111961490302E+00  0.116837290112E+00  0.121843501558E+00  0.126975664971E+00
  0.132228331999E+00  0.137594988276E+00  0.143067974364E+00  0.148638405441E+00  0.154296090284E+00
  0.160029450191E+00  0.165825438575E+00  0.171669462027E+00  0.177545303733E+00  0.183435050159E+00
  0.189319021951E+00  0.195175709996E+00  0.200981717541E+00  0.206711709312E+00  0.212338368591E+00
  0.217832363399E+00  0.223162323263E+00  0.228294828527E+00  0.233194414707E+00  0.237823594967E+00
  0.242142904155E+00  0.246110967972E+00  0.249684600702E+00  0.252818934457E+00  0.255467582226E+00
  0.257582836180E+00  0.259115901975E+00  0.260017169306E+00  0.260236518862E+00  0.259723665873E+00
  0.258428540557E+00  0.256301705636E+00  0.253294810826E+00  0.249361083652E+00  0.244455855434E+00
  0.238537120659E+00  0.231566127337E+00  0.223507995277E+00  0.214332358473E+00  0.204014027035E+00
  0.192533663166E+00  0.179878464831E+00  0.166042849712E+00  0.151029131099E+00  0.134848176327E+00
  0.117520037412E+00  0.990745426625E-01  0.795518372655E-01  0.590028602753E-01  0.374897450217E-01
  0.150861298007E-01 -0.812263430447E-02 -0.320393914940E-01 -0.565552179945E-01 -0.815495997724E-01
 -0.106890762224E+00 -0.132436159628E+00 -0.158033125268E+00 -0.183519671288E+00 -0.208725411538E+00
 -0.233472567315E+00 -0.257577017057E+00 -0.280849379795E+00 -0.303096180759E+00 -0.324121213305E+00
 -0.343727229174E+00 -0.361718005411E+00 -0.377900680407E+00 -0.392088151996E+00 -0.404101371703E+00
 -0.413771483494E+00 -0.420941830620E+00 -0.425469859658E+00 -0.427228921934E+00 -0.426109943376E+00
 -0.422022919911E+00 -0.414898196747E+00 -0.404687500544E+00 -0.391364708190E+00 -0.374926348973E+00
 -0.355391847112E+00 -0.332803518163E+00 -0.307226336595E+00 -0.278747493299E+00 -0.247475761694E+00
 -0.213540689872E+00 -0.177091633669E+00 -0.138296643138E+00 -0.973412115059E-01 -0.544268938789E-01
 -0.976980093576E-02  0.364010265322E-01  0.838453548500E-01  0.132313595405E+00  0.181548727939E+00
  0.231288290002E+00  0.281266412154E+00  0.331215881531E+00  0.380870225062E+00  0.429965813693E+00
  0.478243993969E+00  0.525453237171E+00  0.571351242088E+00  0.615706827070E+00  0.658301328817E+00
  0.698929178424E+00  0.737397479103E+00  0.773524822940E+00  0.807140083824E+00  0.838082131490E+00
  0.866201052308E+00  0.891360730791E+00  0.913442061113E+00  0.932345982609E+00  0.947995843460E+00
  0.960338970080E+00  0.969347539746E+00  0.975018899665E+00  0.977375444653E+00  0.976464121994E+00
  0.972355599411E+00  0.965143129659E+00  0.954941143061E+00  0.941883617397E+00  0.926122263691E+00
  0.907824587069E+00  0.887171866708E+00  0.864357096377E+00  0.839582924494E+00  0.813059604795E+00
  0.785002985653E+00  0.755632519674E+00  0.725169296251E+00  0.693834072638E+00  0.661845285929E+00
  0.629417040157E+00  0.596757067527E+00  0.564064695608E+00  0.531528872729E+00  0.499326327761E+00
  0.467619957273E+00  0.436557529085E+00  0.406270778961E+00  0.376874947833E+00  0.348468770812E+00
  0.321134891066E+00  0.294940637099E+00  0.269939075143E+00  0.246170231510E+00  0.223662374253E+00
  0.202433249681E+00  0.182491187081E+00  0.163836013088E+00  0.146459752289E+00  0.130347127811E+00
  0.115475908275E+00  0.101817169663E+00  0.893355485611E-01  0.779895566081E-01  0.677320080941E-01
  0.585105884989E-01  0.502685670032E-01  0.429456348701E-01  0.364788365999E-01  0.308035525670E-01
  0.258544897833E-01  0.215666401275E-01  0.178761712390E-01  0.147212228577E-01  0.120425895306E-01
  0.978427848541E-02  0.789393855483E-02  0.632316204986E-02  0.502766629405E-02  0.396736516392E-02
  0.310634349502E-02  0.241274873364E-02
 pseudo wavefunction
  0.144509143645E-07  0.154060099549E-07  0.164242301034E-07  0.175097468633E-07  0.186670080290E-07
  0.199007553603E-07  0.212160440112E-07  0.226182632431E-07  0.241131585063E-07  0.257068549820E-07
  0.274058826791E-07  0.292172031903E-07  0.311482382171E-07  0.332068999785E-07  0.354016236312E-07
  0.377414018318E-07  0.402358215827E-07  0.428951035146E-07  0.457301437639E-07  0.487525586188E-07
  0.519747321157E-07  0.554098667818E-07  0.590720377305E-07  0.629762503334E-07  0.671385017030E-07
  0.715758462388E-07  0.763064655068E-07  0.813497427357E-07  0.867263422383E-07  0.924582940809E-07
  0.985690843496E-07  0.105083751382E-06  0.112028988359E-06  0.119433252677E-06  0.127326882551E-06
  0.135742221318E-06  0.144713749967E-06  0.154278228414E-06  0.164474846126E-06  0.175345382697E-06
  0.186934379031E-06  0.199289319847E-06  0.212460828242E-06  0.226502873113E-06  0.241472990288E-06
  0.257432518276E-06  0.274446849592E-06  0.292585698694E-06  0.311923387638E-06  0.332539150594E-06
  0.354517458508E-06  0.377948365208E-06  0.402927876392E-06  0.429558342995E-06  0.457948880570E-06
  0.488215816366E-06  0.520483165975E-06  0.554883141465E-06  0.591556693106E-06  0.630654086898E-06
  0.672335520267E-06  0.716771778456E-06  0.764144934295E-06  0.814649094225E-06  0.868491193625E-06
  0.925891844699E-06  0.987086240417E-06  0.105232511818E-05  0.112187578718E-05  0.119602322367E-05
  0.127507123865E-05  0.135934372260E-05  0.144918597270E-05  0.154496610752E-05  0.164707657543E-05
  0.175593576252E-05  0.187198970694E-05  0.199571392644E-05  0.212761536673E-05  0.226823447865E-05
  0.241814743252E-05  0.257796847894E-05  0.274835246558E-05  0.292999752031E-05  0.312364791162E-05
  0.333009709817E-05  0.355019097980E-05  0.378483136347E-05  0.403497965823E-05  0.430166081438E-05
  0.458596752300E-05  0.488906469300E-05  0.521219422410E-05  0.555668009517E-05  0.592393378898E-05
  0.631546007531E-05  0.673286317642E-05  0.717785333986E-05  0.765225384577E-05  0.815800847717E-05
  0.869718948405E-05  0.927200607372E-05  0.988481346230E-05  0.105381225244E-04  0.112346100803E-04
  0.119771298637E-04  0.127687242130E-04  0.136126365365E-04  0.145123246007E-04  0.154714746969E-04
  0.164940167435E-04  0.175841403875E-04  0.187463121687E-04  0.199852938190E-04  0.213061617706E-04
  0.227143279533E-04  0.242155619666E-04  0.258160147156E-04  0.275222436108E-04  0.293412394307E-04
  0.312804549611E-04  0.333478355263E-04  0.355518515370E-04  0.379015331895E-04  0.404065074573E-04
  0.430770375262E-04  0.459240648362E-04  0.489592538990E-04  0.521950400783E-04  0.556446805255E-04
  0.593223084805E-04  0.632429911598E-04  0.674227914687E-04  0.718788337891E-04  0.766293741139E-04
  0.816938748126E-04  0.870930843363E-04  0.928491221854E-04  0.989855694895E-04  0.105527565569E-03
  0.112501910873E-03  0.119937176713E-03  0.127863822245E-03  0.136314319170E-03  0.145323284673E-03
  0.154927623132E-03  0.165166677186E-03  0.176082388767E-03  0.187719470767E-03  0.200125590025E-03
  0.213351562398E-03  0.227451560689E-03  0.242483336305E-03  0.258508455524E-03  0.275592551349E-03
  0.293805591967E-03  0.313222166915E-03  0.333921792096E-03  0.355989234911E-03  0.379514860807E-03
  0.404595002665E-03  0.431332354508E-03  0.459836391148E-03  0.490223815452E-03  0.522619035055E-03
  0.557154670435E-03  0.593972096421E-03  0.633222019300E-03  0.675065091879E-03  0.719672568951E-03
  0.767227005836E-03  0.817923002786E-03  0.871967998253E-03  0.929583114202E-03  0.991004056857E-03
  0.105648207649E-02  0.112628499007E-02  0.120069827087E-02  0.128002620936E-02  0.136459315002E-02
  0.145474480890E-02  0.155084967727E-02  0.165330051677E-02  0.176251595203E-02  0.187894216698E-02
  0.200305471148E-02  0.213536042539E-02  0.227639948741E-02  0.242674759679E-02  0.258701829633E-02
  0.275786544539E-02  0.293998585265E-02  0.313412207851E-02  0.334106541768E-02  0.356165907343E-02
  0.379680153512E-02  0.404745017182E-02  0.431462505515E-02  0.459941302548E-02  0.490297201623E-02
  0.522653565194E-02  0.557141813653E-02  0.593901944910E-02  0.633083086544E-02  0.674844082448E-02
  0.719354115957E-02  0.766793371586E-02  0.817353737558E-02  0.871239551437E-02  0.928668391245E-02
  0.989871914577E-02  0.105509674829E-01  0.112460543148E-01  0.119867741443E-01  0.127761011655E-01
  0.136172004605E-01  0.145134398449E-01  0.154684023918E-01  0.164858996654E-01  0.175699856952E-01
  0.187249717217E-01  0.199554417445E-01  0.212662689027E-01  0.226626327157E-01  0.241500372137E-01
  0.257343299810E-01  0.274217221364E-01  0.292188092688E-01  0.311325933436E-01  0.331705055892E-01
  0.353404303665E-01  0.376507300176E-01  0.401102706785E-01  0.427284490331E-01  0.455152199691E-01
  0.484811250836E-01  0.516373219681E-01  0.549956141833E-01  0.585684818059E-01  0.623691124098E-01
  0.664114323053E-01  0.707101378287E-01  0.752807264320E-01  0.801395272758E-01  0.853037309765E-01
  0.907914180964E-01  0.966215859023E-01  0.102814172836E+00  0.109390080063E+00  0.116371189359E+00
  0.123780376502E+00  0.131641519203E+00  0.139979498503E+00  0.148820192377E+00  0.158190460194E+00
  0.168118116428E+00  0.178631891915E+00  0.189761380674E+00  0.201536970143E+00  0.213989752436E+00
  0.227151413975E+00  0.241054100625E+00  0.255730255169E+00  0.271212423728E+00  0.287533027457E+00
  0.304724095595E+00  0.322816955744E+00  0.341841877016E+00  0.361827661570E+00  0.382801179958E+00
  0.404786845682E+00  0.427806024504E+00  0.451876374255E+00  0.477011111343E+00  0.503218200764E+00
  0.530499467337E+00  0.558849627072E+00  0.588255239142E+00  0.618693580919E+00  0.650131451025E+00
  0.682523908335E+00  0.715812958523E+00  0.749926203974E+00  0.784775477906E+00  0.820255489144E+00
  0.856242510378E+00  0.892593149672E+00  0.929143252424E+00  0.965706988704E+00  0.100207618852E+01
  0.103801999478E+01  0.107328490970E+01  0.110759531471E+01  0.114065454510E+01  0.117214659790E+01
  0.120173854317E+01  0.122908369329E+01  0.125382556010E+01  0.127560259424E+01  0.129405365231E+01
  0.130882407449E+01  0.131957217641E+01  0.132597586519E+01  0.132773898109E+01  0.132459684834E+01
  0.131632039766E+01  0.130271811057E+01  0.128363494793E+01  0.125894738549E+01  0.122855371620E+01
  0.119235892974E+01  0.115025378572E+01  0.110208820450E+01  0.104763985231E+01  0.986675957338E+00
  0.919269537359E+00  0.845600439068E+00  0.765870789805E+00  0.000000000000E+00  0.000000000000E+00
  0.000000000000E+00  0.000000000000E+00  0.000000000000E+00  0.000000000000E+00  0.000000000000E+00
  0.000000000000E+00  0.000000000000E+00  0.000000000000E+00  0.000000000000E+00  0.000000000000E+00
  0.000000000000E+00  0.000000000000E+00  0.000000000000E+00  0.000000000000E+00  0.000000000000E+00
  0.000000000000E+00  0.000000000000E+00  0.000000000000E+00  0.000000000000E+00  0.000000000000E+00
  0.000000000000E+00  0.000000000000E+00  0.000000000000E+00  0.000000000000E+00  0.000000000000E+00
  0.000000000000E+00  0.000000000000E+00  0.000000000000E+00  0.000000000000E+00  0.000000000000E+00
  0.000000000000E+00  0.000000000000E+00  0.000000000000E+00  0.000000000000E+00  0.000000000000E+00
  0.000000000000E+00  0.000000000000E+00  0.000000000000E+00  0.000000000000E+00  0.000000000000E+00
  0.000000000000E+00  0.000000000000E+00  0.000000000000E+00  0.000000000000E+00  0.000000000000E+00
  0.000000000000E+00  0.000000000000E+00
 ae wavefunction
  0.481319222438E-05  0.509620640294E-05  0.539492461552E-05  0.571027554017E-05  0.604324052020E-05
  0.639485673737E-05  0.676622057093E-05  0.715849115577E-05  0.757289415037E-05  0.801072572966E-05
  0.847335681486E-05  0.896223755612E-05  0.947890208495E-05  0.100249735508E-04  0.106021694613E-04
  0.112123073447E-04  0.118573107561E-04  0.125392156448E-04  0.132601771108E-04  0.140224765700E-04
  0.148285293580E-04  0.156808927960E-04  0.165822747498E-04  0.175355427105E-04  0.185437334353E-04
  0.196100631748E-04  0.207379385304E-04  0.219309679750E-04  0.231929740925E-04  0.245280065516E-04
  0.259403558991E-04  0.274345681886E-04  0.290154605200E-04  0.306881375327E-04  0.324580089238E-04
  0.343308080422E-04  0.363126116399E-04  0.384098608406E-04  0.406293834106E-04  0.429784174081E-04
  0.454646362984E-04  0.480961756293E-04  0.508816613586E-04  0.538302399431E-04  0.569516102936E-04
  0.602560577160E-04  0.637544899603E-04  0.674584755089E-04  0.713802842445E-04  0.755329306438E-04
  0.799302196551E-04  0.845867954253E-04  0.895181930537E-04  0.947408935566E-04  0.100272382247E-03
  0.106131210730E-03  0.112337062750E-03  0.118910824110E-03  0.125874656928E-03  0.133252078479E-03
  0.141068044925E-03  0.149349040205E-03  0.158123170420E-03  0.167420264028E-03  0.177271978217E-03
  0.187711911818E-03  0.198775725149E-03  0.210501267218E-03  0.222928710705E-03  0.236100695216E-03
  0.250062479261E-03  0.264862101511E-03  0.280550551849E-03  0.297181952822E-03  0.314813752062E-03
  0.333506926358E-03  0.353326198029E-03  0.374340264305E-03  0.396622040486E-03  0.420248917646E-03
  0.445303035716E-03  0.471871572827E-03  0.500047051807E-03  0.529927664812E-03  0.561617617079E-03
  0.595227490888E-03  0.630874630798E-03  0.668683551353E-03  0.708786368461E-03  0.751323255702E-03
  0.796442926905E-03  0.844303146381E-03  0.895071268230E-03  0.948924806265E-03  0.100605203609E-02
  0.106665263093E-02  0.113093833301E-02  0.119913366206E-02  0.127147666295E-02  0.134821969416E-02
  0.142963025915E-02  0.151599188252E-02  0.160760503306E-02  0.170478809581E-02  0.180787839523E-02
  0.191723327167E-02  0.203323121343E-02  0.215627304667E-02  0.228678318541E-02  0.242521094393E-02
  0.257203191397E-02  0.272774940902E-02  0.289289597784E-02  0.306803498970E-02  0.325376229337E-02
  0.345070795210E-02  0.365953805656E-02  0.388095661766E-02  0.411570754110E-02  0.436457668515E-02
  0.462839400307E-02  0.490803577132E-02  0.520442690440E-02  0.551854335667E-02  0.585141461149E-02
  0.620412625706E-02  0.657782264823E-02  0.697370965278E-02  0.739305748005E-02  0.783720358901E-02
  0.830755567208E-02  0.880559471011E-02  0.933287809279E-02  0.989104279762E-02  0.104818086195E-01
  0.111069814412E-01  0.117684565337E-01  0.124682218741E-01  0.132083614653E-01  0.139910586424E-01
  0.148185993449E-01  0.156933753354E-01  0.166178873397E-01  0.175947480808E-01  0.186266851784E-01
  0.197165438796E-01  0.208672895843E-01  0.220820101239E-01  0.233639177492E-01  0.247163507784E-01
  0.261427748498E-01  0.276467837221E-01  0.292320995563E-01  0.309025726106E-01  0.326621802724E-01
  0.345150253442E-01  0.364653334976E-01  0.385174497980E-01  0.406758341992E-01  0.429450558996E-01
  0.453297864418E-01  0.478347914345E-01  0.504649207629E-01  0.532250971518E-01  0.561203029322E-01
  0.591555648621E-01  0.623359368382E-01  0.656664803332E-01  0.691522423866E-01  0.727982309702E-01
  0.766093875464E-01  0.805905566332E-01  0.847464521888E-01  0.890816206265E-01  0.936004002731E-01
  0.983068770868E-01  0.103204836456E+00  0.108297710909E+00  0.113588523575E+00  0.119079827255E+00
  0.124773638974E+00  0.130671369913E+00  0.136773750647E+00  0.143080751648E+00  0.149591499040E+00
  0.156304185663E+00  0.163215977521E+00  0.170322915778E+00  0.177619814505E+00  0.185100154487E+00
  0.192755973456E+00  0.200577753221E+00  0.208554304274E+00  0.216672648565E+00  0.224917901239E+00
  0.233273152294E+00  0.241719349201E+00  0.250235181674E+00  0.258796969875E+00  0.267378557379E+00
  0.275951210306E+00  0.284483523963E+00  0.292941338359E+00  0.301287663928E+00  0.309482618877E+00
  0.317483379852E+00  0.325244148066E+00  0.332716133758E+00  0.339847562646E+00  0.346583708866E+00
  0.352866959409E+00  0.358636915302E+00  0.363830534514E+00  0.368382320936E+00  0.372224562757E+00
  0.375287622400E+00  0.377500279083E+00  0.378790124439E+00  0.379084011379E+00  0.378308556546E+00
  0.376390696795E+00  0.373258300010E+00  0.368840830080E+00  0.363070065168E+00  0.355880867588E+00
  0.347212002689E+00  0.337007003301E+00  0.325215075248E+00  0.311792038427E+00  0.296701296752E+00
  0.279914829003E+00  0.261414191257E+00  0.241191520128E+00  0.219250524587E+00  0.195607452654E+00
  0.170292017821E+00  0.143348268788E+00  0.114835384928E+00  0.848283790630E-01  0.534186885296E-01
  0.207146352269E-01 -0.131582646544E-01 -0.480571603825E-01 -0.838219147351E-01 -0.120275358484E+00
 -0.157223767573E+00 -0.194457574557E+00 -0.231752315819E+00 -0.268869798799E+00 -0.305559450435E+00
 -0.341559788618E+00 -0.376599960312E+00 -0.410401332165E+00 -0.442679205058E+00 -0.473144819868E+00
 -0.501507847341E+00 -0.527479432287E+00 -0.550775634685E+00 -0.571120965494E+00 -0.588251775584E+00
 -0.601919423174E+00 -0.611893254701E+00 -0.617963441865E+00 -0.619943675196E+00 -0.617673672013E+00
 -0.611021436372E+00 -0.599885210548E+00 -0.584195073134E+00 -0.563914160408E+00 -0.539039506569E+00
 -0.509602513220E+00 -0.475669067945E+00 -0.437339337131E+00 -0.394747260225E+00 -0.348059772265E+00
 -0.297475779532E+00 -0.243224909260E+00 -0.185566050646E+00 -0.124785699268E+00 -0.611961142364E-01
  0.486670556118E-02  0.730452189522E-01  0.142962704213E+00  0.214225770209E+00  0.286426995776E+00
  0.359147670760E+00  0.431960610538E+00  0.504433020683E+00  0.576129401379E+00  0.646614495897E+00
  0.715456294082E+00  0.782229076667E+00  0.846516405373E+00  0.907913816526E+00  0.966030807352E+00
  0.102049164637E+01  0.107093477978E+01  0.111701121859E+01  0.115838301042E+01  0.119472316984E+01
  0.122571787872E+01  0.125107069092E+01  0.127050763178E+01  0.128378202507E+01  0.129067833164E+01
  0.129101484432E+01  0.128464539002E+01  0.127146024913E+01  0.125138645312E+01  0.122438755793E+01
  0.119046294492E+01  0.114964669832E+01  0.110200610598E+01  0.104763985231E+01  0.986675957338E+00
  0.919269537359E+00  0.845600439068E+00  0.765870789805E+00  0.000000000000E+00  0.000000000000E+00
  0.000000000000E+00  0.000000000000E+00  0.000000000000E+00  0.000000000000E+00  0.000000000000E+00
  0.000000000000E+00  0.000000000000E+00  0.000000000000E+00  0.000000000000E+00  0.000000000000E+00
  0.000000000000E+00  0.000000000000E+00  0.000000000000E+00  0.000000000000E+00  0.000000000000E+00
  0.000000000000E+00  0.000000000000E+00  0.000000000000E+00  0.000000000000E+00  0.000000000000E+00
  0.000000000000E+00  0.000000000000E+00  0.000000000000E+00  0.000000000000E+00  0.000000000000E+00
  0.000000000000E+00  0.000000000000E+00  0.000000000000E+00  0.000000000000E+00  0.000000000000E+00
  0.000000000000E+00  0.000000000000E+00  0.000000000000E+00  0.000000000000E+00  0.000000000000E+00
  0.000000000000E+00  0.000000000000E+00  0.000000000000E+00  0.000000000000E+00  0.000000000000E+00
  0.000000000000E+00  0.000000000000E+00  0.000000000000E+00  0.000000000000E+00  0.000000000000E+00
  0.000000000000E+00  0.000000000000E+00
 pseudo wavefunction
  0.406396743188E-12  0.447344898534E-12  0.492418951668E-12  0.542034624183E-12  0.596649525395E-12
  0.656767372904E-12  0.722942638421E-12  0.795785661711E-12  0.875968279797E-12  0.964230023373E-12
  0.106138493755E-11  0.116832908987E-11  0.128604883478E-11  0.141562991089E-11  0.155826745482E-11
  0.171527702401E-11  0.188810673026E-11  0.207835059574E-11  0.228776325479E-11  0.251827613708E-11
  0.277201528130E-11  0.305132094379E-11  0.335876918295E-11  0.369719561839E-11  0.406972158406E-11
  0.447978291660E-11  0.493116164434E-11  0.542802086917E-11  0.597494316324E-11  0.657697283435E-11
  0.723966244998E-11  0.796912404907E-11  0.877208551385E-11  0.965595262160E-11  0.106288773487E-10
  0.116998330570E-10  0.128786972558E-10  0.141763427028E-10  0.156047376846E-10  0.171770564008E-10
  0.189078004711E-10  0.208129326843E-10  0.229100242250E-10  0.252184167334E-10  0.277594006948E-10
  0.305564118037E-10  0.336352471128E-10  0.370243029609E-10  0.407548368750E-10  0.448612558602E-10
  0.493814337385E-10  0.543570604618E-10  0.598340266212E-10  0.658628466994E-10  0.724991249695E-10
  0.798040683371E-10  0.878450508559E-10  0.966962351239E-10  0.106439256289E-09  0.117163974978E-09
  0.128969306085E-09  0.141964131071E-09  0.156268302185E-09  0.172013747870E-09  0.189345689547E-09
  0.208423981001E-09  0.229424582726E-09  0.252541184814E-09  0.277986993375E-09  0.305996696949E-09
  0.336828631053E-09  0.370767160821E-09  0.408125303725E-09  0.449247616547E-09  0.494513373250E-09
  0.544340063035E-09  0.599187240870E-09  0.659560765986E-09  0.726017467438E-09  0.799170279764E-09
  0.879693896107E-09  0.968330990933E-09  0.106589906975E-08  0.117329800896E-08  0.129151835552E-08
  0.142165046267E-08  0.156489454638E-08  0.172257175492E-08  0.189613635386E-08  0.208718913872E-08
  0.229749219917E-08  0.252898517078E-08  0.278380312423E-08  0.306429625707E-08  0.337305156959E-08
  0.371291672458E-08  0.408702631132E-08  0.449883075574E-08  0.495212814356E-08  0.545109924983E-08
  0.600034609797E-08  0.660493440387E-08  0.727044029665E-08  0.800300174672E-08  0.880937517568E-08
  0.969699777003E-08  0.106740560734E-07  0.117495614898E-07  0.129334333945E-07  0.142365906187E-07
  0.156710521519E-07  0.172500479903E-07  0.189881411546E-07  0.209013620006E-07  0.230073560633E-07
  0.253255467962E-07  0.278773147084E-07  0.306861945488E-07  0.337780923593E-07  0.371815243954E-07
  0.409278801197E-07  0.450517116923E-07  0.495910526280E-07  0.545877685593E-07  0.600879433388E-07
  0.661423040420E-07  0.728066887893E-07  0.801425617009E-07  0.882175797334E-07  0.971062166237E-07
  0.106890449695E-06  0.117660515855E-06  0.129515743759E-06  0.142565469813E-06  0.156930046451E-06
  0.172741951999E-06  0.190147012344E-06  0.209305745678E-06  0.230394842710E-06  0.253608796000E-06
  0.279161693417E-06  0.307289192277E-06  0.338250692336E-06  0.372331727680E-06  0.409846599554E-06
  0.451141274396E-06  0.496596573784E-06  0.546631685692E-06  0.601708029416E-06  0.662333509778E-06
  0.729067199810E-06  0.802524495064E-06  0.883382787024E-06  0.972387707897E-06  0.107036000429E-05
  0.117820310311E-05  0.129691143934E-05  0.142757962236E-05  0.157141252533E-05  0.172973639037E-05
  0.190401105186E-05  0.209584339036E-05  0.230700214103E-05  0.253943419265E-05  0.279528252743E-05
  0.307690596644E-05  0.338690090247E-05  0.372812521998E-05  0.410372462223E-05  0.451716160752E-05
  0.497224736092E-05  0.547317685435E-05  0.602456747771E-05  0.663150155558E-05  0.729957313994E-05
  0.803493950850E-05  0.884437784087E-05  0.973534759268E-05  0.107160591394E-04  0.117955493189E-04
  0.129837645653E-04  0.142916523946E-04  0.157312620797E-04  0.173158554370E-04  0.190600287349E-04
  0.209798468411E-04  0.230929908321E-04  0.254189204114E-04  0.279790526203E-04  0.307969584666E-04
  0.338985792644E-04  0.373124646509E-04  0.410700344461E-04  0.452058667315E-04  0.497580147612E-04
  0.547683555782E-04  0.602829734902E-04  0.663525818710E-04  0.730329870962E-04  0.803855987934E-04
  0.884779910012E-04  0.973845192775E-04  0.107186999294E-03  0.117975452987E-03  0.129848928946E-03
  0.142916404325E-03  0.157297776341E-03  0.173124952111E-03  0.190543046515E-03  0.209711698625E-03
  0.230806518302E-03  0.254020675635E-03  0.279566647129E-03  0.307678133833E-03  0.338612168053E-03
  0.372651426850E-03  0.410106772198E-03  0.451320039561E-03  0.496667098598E-03  0.546561211914E-03
  0.601456720122E-03  0.661853083992E-03  0.728299317271E-03  0.801398846662E-03  0.881814838701E-03
  0.970276036679E-03  0.106758315444E-02  0.117461587788E-02  0.129234052911E-02  0.142181845291E-02
  0.156421518956E-02  0.172081050370E-02  0.189300934352E-02  0.208235381097E-02  0.229053622878E-02
  0.251941339665E-02  0.277102213507E-02  0.304759622159E-02  0.335158483087E-02  0.368567259641E-02
  0.405280141812E-02  0.445619414617E-02  0.489938027731E-02  0.538622380505E-02  0.592095336982E-02
  0.650819485823E-02  0.715300660327E-02  0.786091733700E-02  0.863796704625E-02  0.949075087685E-02
  0.104264662248E-01  0.114529631414E-01  0.125787981619E-01  0.138132916494E-01  0.151665887122E-01
  0.166497237225E-01  0.182746884186E-01  0.200545035164E-01  0.220032936955E-01  0.241363657434E-01
  0.264702895513E-01  0.290229815477E-01  0.318137900298E-01  0.348635817135E-01  0.381948286570E-01
  0.418316945355E-01  0.458001190406E-01  0.501278989590E-01  0.548447642490E-01  0.599824471822E-01
  0.655747423568E-01  0.716575551346E-01  0.782689357977E-01  0.854490965005E-01  0.932404079072E-01
  0.101687372287E+00  0.110836569826E+00  0.120736575017E+00  0.131437840292E+00  0.142992544583E+00
  0.155454405303E+00  0.168878453444E+00  0.183320773102E+00  0.198838208891E+00  0.215488047512E+00
  0.233327683199E+00  0.252414281043E+00  0.272804457286E+00  0.294554001626E+00  0.317717673340E+00
  0.342349110438E+00  0.368500898950E+00  0.396224857295E+00  0.425572597938E+00  0.456596434283E+00
  0.489350703722E+00  0.523893576374E+00  0.560289411160E+00  0.598611703960E+00  0.638946643555E+00
  0.681397246384E+00  0.726087976985E+00  0.773169673521E+00  0.822824483474E+00  0.875270371026E+00
  0.930764584389E+00  0.989605271035E+00  0.105213020911E+01  0.111871139831E+01  0.118974404614E+01
  0.126562832977E+01  0.134674225547E+01  0.143340403696E+01  0.152582274231E+01  0.162418080449E+01
  0.172912531017E+01  0.184152850073E+01  0.196238708839E+01  0.000000000000E+00  0.000000000000E+00
  0.000000000000E+00  0.000000000000E+00  0.000000000000E+00  0.000000000000E+00  0.000000000000E+00
  0.000000000000E+00  0.000000000000E+00  0.000000000000E+00  0.000000000000E+00  0.000000000000E+00
  0.000000000000E+00  0.000000000000E+00  0.000000000000E+00  0.000000000000E+00  0.000000000000E+00
  0.000000000000E+00  0.000000000000E+00  0.000000000000E+00  0.000000000000E+00  0.000000000000E+00
  0.000000000000E+00  0.000000000000E+00  0.000000000000E+00  0.000000000000E+00  0.000000000000E+00
  0.000000000000E+00  0.000000000000E+00  0.000000000000E+00  0.000000000000E+00  0.000000000000E+00
  0.000000000000E+00  0.000000000000E+00  0.000000000000E+00  0.000000000000E+00  0.000000000000E+00
  0.000000000000E+00  0.000000000000E+00  0.000000000000E+00  0.000000000000E+00  0.000000000000E+00
  0.000000000000E+00  0.000000000000E+00  0.000000000000E+00  0.000000000000E+00  0.000000000000E+00
  0.000000000000E+00  0.000000000000E+00
 ae wavefunction
 -0.618293099374E-09 -0.676089623828E-09 -0.738809130085E-09 -0.806910551625E-09 -0.880892693544E-09
 -0.961297966854E-09 -0.104871645491E-08 -0.114379034401E-08 -0.124721875198E-08 -0.135976299306E-08
 -0.148225231944E-08 -0.161559018485E-08 -0.176076107953E-08 -0.191883798965E-08 -0.209099054024E-08
 -0.227849388602E-08 -0.248273842102E-08 -0.270524038180E-08 -0.294765343134E-08 -0.321178131351E-08
 -0.349959168072E-08 -0.381323120404E-08 -0.415504208707E-08 -0.452758011547E-08 -0.493363439006E-08
 -0.537624889781E-08 -0.585874609864E-08 -0.638475271515E-08 -0.695822794272E-08 -0.758349429116E-08
 -0.826527133192E-08 -0.900871260591E-08 -0.981944600493E-08 -0.107036179505E-07 -0.116679417383E-07
 -0.127197504358E-07 -0.138670547793E-07 -0.151186065363E-07 -0.164839678647E-07 -0.179735872356E-07
 -0.195988825530E-07 -0.213723321566E-07 -0.233075744651E-07 -0.254195170885E-07 -0.277244563189E-07
 -0.302402079963E-07 -0.329862508441E-07 -0.359838834739E-07 -0.392563963737E-07 -0.428292603263E-07
 -0.467303328383E-07 -0.509900843180E-07 -0.556418459088E-07 -0.607220810643E-07 -0.662706831657E-07
 -0.723313016868E-07 -0.789516996812E-07 -0.861841455968E-07 -0.940858427686E-07 -0.102719400207E-06
 -0.112153348691E-06 -0.122462706557E-06 -0.133729599983E-06 -0.146043943051E-06 -0.159504183373E-06
 -0.174218119651E-06 -0.190303798095E-06 -0.207890495397E-06 -0.227119796586E-06 -0.248146777011E-06
 -0.271141298488E-06 -0.296289430708E-06 -0.323795010005E-06 -0.353881348819E-06 -0.386793110400E-06
 -0.422798364781E-06 -0.462190843554E-06 -0.505292412634E-06 -0.552455784178E-06 -0.604067490680E-06
 -0.660551146620E-06 -0.722371025454E-06 -0.790035982325E-06 -0.864103755901E-06 -0.945185685851E-06
 -0.103395188605E-05 -0.113113691731E-05 -0.123754600784E-05 -0.135406187394E-05 -0.148165219868E-05
 -0.162137783170E-05 -0.177440177933E-05 -0.194199906056E-05 -0.212556751205E-05 -0.232663963265E-05
 -0.254689556669E-05 -0.278817733488E-05 -0.305250443158E-05 -0.334209091833E-05 -0.365936415597E-05
 -0.400698533084E-05 -0.438787194483E-05 -0.480522245548E-05 -0.526254326870E-05 -0.576367830634E-05
 -0.631284139086E-05 -0.691465171174E-05 -0.757417266259E-05 -0.829695436467E-05 -0.908908022076E-05
 -0.995721787542E-05 -0.109086749910E-04 -0.119514602866E-04 -0.130943503260E-04 -0.143469625874E-04
 -0.157198353905E-04 -0.172245153126E-04 -0.188736527789E-04 -0.206811065718E-04 -0.226620580734E-04
 -0.248331361201E-04 -0.272125534328E-04 -0.298202556615E-04 -0.326780841788E-04 -0.358099538498E-04
 -0.392420471126E-04 -0.430030258152E-04 -0.471242623760E-04 -0.516400919667E-04 -0.565880875549E-04
 -0.620093597965E-04 -0.679488839295E-04 -0.744558559928E-04 -0.815840808820E-04 -0.893923949502E-04
 -0.979451260780E-04 -0.107312594358E-03 -0.117571656786E-03 -0.128806299604E-03 -0.141108282217E-03
 -0.154577836883E-03 -0.169324428702E-03 -0.185467580732E-03 -0.203137769410E-03 -0.222477395815E-03
 -0.243641838680E-03 -0.266800595452E-03 -0.292138518119E-03 -0.319857150923E-03 -0.350176177544E-03
 -0.383334985782E-03 -0.419594358220E-03 -0.459238297831E-03 -0.502575997991E-03 -0.549943966799E-03
 -0.601708316146E-03 -0.658267226395E-03 -0.720053598054E-03 -0.787537902221E-03 -0.861231242062E-03
 -0.941688637912E-03 -0.102951254900E-02 -0.112535664503E-02 -0.122992984111E-02 -0.134400060972E-02
 -0.146840158327E-02 -0.160403446101E-02 -0.175187523353E-02 -0.191297973811E-02 -0.208848955715E-02
 -0.227963827166E-02 -0.248775808047E-02 -0.271428679466E-02 -0.296077521518E-02 -0.322889489974E-02
 -0.352044632268E-02 -0.383736742907E-02 -0.418174258072E-02 -0.455581188871E-02 -0.496198092229E-02
 -0.540283077941E-02 -0.588112849889E-02 -0.639983778752E-02 -0.696213002903E-02 -0.757139553378E-02
 -0.823125497951E-02 -0.894557098414E-02 -0.971845974115E-02 -0.105543026368E-01 -0.114577577561E-01
 -0.124337711724E-01 -0.134875878990E-01 -0.146247623699E-01 -0.158511682990E-01 -0.171730077513E-01
 -0.185968192437E-01 -0.201294846736E-01 -0.217782348553E-01 -0.235506534200E-01 -0.254546788089E-01
 -0.274986040548E-01 -0.296910740060E-01 -0.320410795932E-01 -0.345579486849E-01 -0.372513330166E-01
 -0.401311906359E-01 -0.432077632847E-01 -0.464915481639E-01 -0.499932635891E-01 -0.537238081490E-01
 -0.576942130930E-01 -0.619155877865E-01 -0.663990581505E-01 -0.711556980277E-01 -0.761964533852E-01
 -0.815320591659E-01 -0.871729484770E-01 -0.931291537185E-01 -0.994101992567E-01 -0.106024985349E+00
 -0.112981663197E+00 -0.120287501178E+00 -0.127948742467E+00 -0.135970454391E+00 -0.144356370005E+00
 -0.153108722522E+00 -0.162228073450E+00 -0.171713135486E+00 -0.181560591493E+00 -0.191764911166E+00
 -0.202318167267E+00 -0.213209853626E+00 -0.224426707391E+00 -0.235952538288E+00 -0.247768067920E+00
 -0.259850782323E+00 -0.272174801202E+00 -0.284710767337E+00 -0.297425759764E+00 -0.310283234374E+00
 -0.323242995731E+00 -0.336261204083E+00 -0.349290421874E+00 -0.362279704288E+00 -0.375174737924E+00
 -0.387918029693E+00 -0.400449142818E+00 -0.412704966886E+00 -0.424619994765E+00 -0.436126565038E+00
 -0.447155025276E+00 -0.457633792753E+00 -0.467489343881E+00 -0.476646241888E+00 -0.485027375406E+00
 -0.492554561461E+00 -0.499149522528E+00 -0.504735052951E+00 -0.509236113889E+00 -0.512580702254E+00
 -0.514700501379E+00 -0.515531401770E+00 -0.515013967582E+00 -0.513093877689E+00 -0.509722331504E+00
 -0.504856392587E+00 -0.498459243402E+00 -0.490500334015E+00 -0.480955420056E+00 -0.469806494979E+00
 -0.457041628284E+00 -0.442654724392E+00 -0.426645217661E+00 -0.409017718287E+00 -0.389781622076E+00
 -0.368950694929E+00 -0.346542639701E+00 -0.322578650461E+00 -0.297082955094E+00 -0.270082344950E+00
 -0.241605686467E+00 -0.211683408671E+00 -0.180346959047E+00 -0.147628221350E+00 -0.113558890510E+00
 -0.781698028005E-01 -0.414902214685E-01 -0.354707839118E-02  0.356358308475E-01  0.760387084264E-01
  0.117646690632E+00  0.160450879446E+00  0.204449472120E+00  0.249648939968E+00  0.296065122325E+00
  0.343724020762E+00  0.392662088516E+00  0.442925997590E+00  0.494572203693E+00  0.547666912026E+00
  0.602287020153E+00  0.658522255156E+00  0.716478284767E+00  0.776280393658E+00  0.838077386241E+00
  0.902045593158E+00  0.968393024004E+00  0.103736378081E+01  0.110924285652E+01  0.118436143240E+01
  0.126310277842E+01  0.134590887582E+01  0.143328789883E+01  0.152582274231E+01  0.162418080449E+01
  0.172912531017E+01  0.184152850073E+01  0.196238708839E+01  0.000000000000E+00  0.000000000000E+00
  0.000000000000E+00  0.000000000000E+00  0.000000000000E+00  0.000000000000E+00  0.000000000000E+00
  0.000000000000E+00  0.000000000000E+00  0.000000000000E+00  0.000000000000E+00  0.000000000000E+00
  0.000000000000E+00  0.000000000000E+00  0.000000000000E+00  0.000000000000E+00  0.000000000000E+00
  0.000000000000E+00  0.000000000000E+00  0.000000000000E+00  0.000000000000E+00  0.000000000000E+00
  0.000000000000E+00  0.000000000000E+00  0.000000000000E+00  0.000000000000E+00  0.000000000000E+00
  0.000000000000E+00  0.000000000000E+00  0.000000000000E+00  0.000000000000E+00  0.000000000000E+00
  0.000000000000E+00  0.000000000000E+00  0.000000000000E+00  0.000000000000E+00  0.000000000000E+00
  0.000000000000E+00  0.000000000000E+00  0.000000000000E+00  0.000000000000E+00  0.000000000000E+00
  0.000000000000E+00  0.000000000000E+00  0.000000000000E+00  0.000000000000E+00  0.000000000000E+00
  0.000000000000E+00  0.000000000000E+00
 End of Dataset
