system = AgTeS6
ISMEAR = 0; SIGMA = 0.01;
ENCUT  = 400
GGA    = PS
EDIFF  = 1E-06
IALGO  = 48
NELM   = 100

IBRION = 0
MDALGO = 3
NSW    = 20000
ISIF   = 2
LANGEVIN_GAMMA = 4 4 4
ISYM   = 0
TEBEG  = 400.0
TEEND  = 200.0
POTIM  = 0.5

LREAL = Auto
LWAVE = .FALSE.
LCHARG = .FALSE.

ML_LMLFF = .TRUE.
ML_MODE = TRAIN
ML_CX   = -0.1
ML_RCUT1 = 10.0
ML_RCUT2 = 8.0
