generated by phonopy
   1.0
    26.4535198836272976    0.0000000000000000    0.0000000000000000
   -13.2267599418136488   22.9094202388323218    0.0000000000000000
     0.0000000000000000    0.0000000000000000   16.6692864680303785
Ag Te S
 296  144   24
Direct
  0.0974442527761022  0.2037568653297737  0.1626958034876226
  0.5974442527761022  0.2037568653297737  0.1626958034876226
  0.0974442527761022  0.7037568653297738  0.1626958034876226
  0.5974442527761022  0.7037568653297738  0.1626958034876226
  0.0974442527761022  0.2037568653297737  0.6626958034876227
  0.5974442527761022  0.2037568653297737  0.6626958034876227
  0.0974442527761022  0.7037568653297738  0.6626958034876227
  0.5974442527761022  0.7037568653297738  0.6626958034876227
  0.2962431196702252  0.3936873724463271  0.1626958034876226
  0.7962431196702251  0.3936873724463271  0.1626958034876226
  0.2962431196702252  0.8936873724463271  0.1626958034876226
  0.7962431196702251  0.8936873724463271  0.1626958034876226
  0.2962431196702252  0.3936873724463271  0.6626958034876227
  0.7962431196702251  0.3936873724463271  0.6626958034876227
  0.2962431196702252  0.8936873724463271  0.6626958034876227
  0.7962431196702251  0.8936873724463271  0.6626958034876227
  0.1063126125536753  0.4025557472238981  0.1626958034876226
  0.6063126125536753  0.4025557472238981  0.1626958034876226
  0.1063126125536753  0.9025557472238981  0.1626958034876226
  0.6063126125536753  0.9025557472238981  0.1626958034876226
  0.1063126125536753  0.4025557472238981  0.6626958034876227
  0.6063126125536753  0.4025557472238981  0.6626958034876227
  0.1063126125536753  0.9025557472238981  0.6626958034876227
  0.6063126125536753  0.9025557472238981  0.6626958034876227
  0.0830542401372710  0.2081519538386073  0.3415217265008328
  0.5830542401372710  0.2081519538386073  0.3415217265008328
  0.0830542401372710  0.7081519538386073  0.3415217265008328
  0.5830542401372710  0.7081519538386073  0.3415217265008328
  0.0830542401372710  0.2081519538386073  0.8415217265008328
  0.5830542401372710  0.2081519538386073  0.8415217265008328
  0.0830542401372710  0.7081519538386073  0.8415217265008328
  0.5830542401372710  0.7081519538386073  0.8415217265008328
  0.2918480311613919  0.3749022712986588  0.3415217265008328
  0.7918480311613919  0.3749022712986588  0.3415217265008328
  0.2918480311613919  0.8749022712986588  0.3415217265008328
  0.7918480311613919  0.8749022712986588  0.3415217265008328
  0.2918480311613919  0.3749022712986588  0.8415217265008328
  0.7918480311613919  0.3749022712986588  0.8415217265008328
  0.2918480311613919  0.8749022712986588  0.8415217265008328
  0.7918480311613919  0.8749022712986588  0.8415217265008328
  0.1250977137013398  0.4169457598627291  0.3415217265008328
  0.6250977137013398  0.4169457598627291  0.3415217265008328
  0.1250977137013398  0.9169457598627291  0.3415217265008328
  0.6250977137013398  0.9169457598627291  0.3415217265008328
  0.1250977137013398  0.4169457598627291  0.8415217265008328
  0.6250977137013398  0.4169457598627291  0.8415217265008328
  0.1250977137013398  0.9169457598627291  0.8415217265008328
  0.6250977137013398  0.9169457598627291  0.8415217265008328
  0.0993952668884473  0.0922742189724533  0.1203430535670930
  0.5993952668884472  0.0922742189724533  0.1203430535670930
  0.0993952668884473  0.5922742189724532  0.1203430535670930
  0.5993952668884472  0.5922742189724532  0.1203430535670930
  0.0993952668884473  0.0922742189724533  0.6203430535670930
  0.5993952668884472  0.0922742189724533  0.6203430535670930
  0.0993952668884473  0.5922742189724532  0.6203430535670930
  0.5993952668884472  0.5922742189724532  0.6203430535670930
  0.4077257665275477  0.0071210479159974  0.1203430535670930
  0.9077257665275477  0.0071210479159974  0.1203430535670930
  0.4077257665275477  0.5071210479159974  0.1203430535670930
  0.9077257665275477  0.5071210479159974  0.1203430535670930
  0.4077257665275477  0.0071210479159974  0.6203430535670930
  0.9077257665275477  0.0071210479159974  0.6203430535670930
  0.4077257665275477  0.5071210479159974  0.6203430535670930
  0.9077257665275477  0.5071210479159974  0.6203430535670930
  0.4928789665840053  0.4006047331115525  0.1203430535670930
  0.9928789665840053  0.4006047331115525  0.1203430535670930
  0.4928789665840053  0.9006047331115525  0.1203430535670930
  0.9928789665840053  0.9006047331115525  0.1203430535670930
  0.4928789665840053  0.4006047331115525  0.6203430535670930
  0.9928789665840053  0.4006047331115525  0.6203430535670930
  0.4928789665840053  0.9006047331115525  0.6203430535670930
  0.9928789665840053  0.9006047331115525  0.6203430535670930
  0.1058569532317546  0.0668029129110223  0.3632222497772150
  0.6058569532317546  0.0668029129110223  0.3632222497772150
  0.1058569532317546  0.5668029129110224  0.3632222497772150
  0.6058569532317546  0.5668029129110224  0.3632222497772150
  0.1058569532317546  0.0668029129110223  0.8632222497772150
  0.6058569532317546  0.0668029129110223  0.8632222497772150
  0.1058569532317546  0.5668029129110224  0.8632222497772150
  0.6058569532317546  0.5668029129110224  0.8632222497772150
  0.4331970725889792  0.0390540403207362  0.3632222497772150
  0.9331970725889791  0.0390540403207362  0.3632222497772150
  0.4331970725889792  0.5390540403207361  0.3632222497772150
  0.9331970725889791  0.5390540403207361  0.3632222497772150
  0.4331970725889792  0.0390540403207362  0.8632222497772150
  0.9331970725889791  0.0390540403207362  0.8632222497772150
  0.4331970725889792  0.5390540403207361  0.8632222497772150
  0.9331970725889791  0.5390540403207361  0.8632222497772150
  0.4609459741792670  0.3941430467682451  0.3632222497772150
  0.9609459741792670  0.3941430467682451  0.3632222497772150
  0.4609459741792670  0.8941430467682452  0.3632222497772150
  0.9609459741792670  0.8941430467682452  0.3632222497772150
  0.4609459741792670  0.3941430467682451  0.8632222497772150
  0.9609459741792670  0.3941430467682451  0.8632222497772150
  0.4609459741792670  0.8941430467682452  0.8632222497772150
  0.9609459741792670  0.8941430467682452  0.8632222497772150
  0.2288458023795641  0.1574740089416492  0.1185476128894064
  0.7288458023795641  0.1574740089416492  0.1185476128894064
  0.2288458023795641  0.6574740089416492  0.1185476128894064
  0.7288458023795641  0.6574740089416492  0.1185476128894064
  0.2288458023795641  0.1574740089416492  0.6185476128894064
  0.7288458023795641  0.1574740089416492  0.6185476128894064
  0.2288458023795641  0.6574740089416492  0.6185476128894064
  0.7288458023795641  0.6574740089416492  0.6185476128894064
  0.3425259910583505  0.0713717934379149  0.1185476128894064
  0.8425259910583505  0.0713717934379149  0.1185476128894064
  0.3425259910583505  0.5713717934379149  0.1185476128894064
  0.8425259910583505  0.5713717934379149  0.1185476128894064
  0.3425259910583505  0.0713717934379149  0.6185476128894064
  0.8425259910583505  0.0713717934379149  0.6185476128894064
  0.3425259910583505  0.5713717934379149  0.6185476128894064
  0.8425259910583505  0.5713717934379149  0.6185476128894064
  0.4286282065620852  0.2711541976204360  0.1185476128894064
  0.9286282065620852  0.2711541976204360  0.1185476128894064
  0.4286282065620852  0.7711541976204359  0.1185476128894064
  0.9286282065620852  0.7711541976204359  0.1185476128894064
  0.4286282065620852  0.2711541976204360  0.6185476128894064
  0.9286282065620852  0.2711541976204360  0.6185476128894064
  0.4286282065620852  0.7711541976204359  0.6185476128894064
  0.9286282065620852  0.7711541976204359  0.6185476128894064
  0.2264051829702808  0.1290096661351754  0.3756333423036066
  0.7264051829702808  0.1290096661351754  0.3756333423036066
  0.2264051829702808  0.6290096661351754  0.3756333423036066
  0.7264051829702808  0.6290096661351754  0.3756333423036066
  0.2264051829702808  0.1290096661351754  0.8756333423036067
  0.7264051829702808  0.1290096661351754  0.8756333423036067
  0.2264051829702808  0.6290096661351754  0.8756333423036067
  0.7264051829702808  0.6290096661351754  0.8756333423036067
  0.3709903338648244  0.0973955168351019  0.3756333423036066
  0.8709903338648244  0.0973955168351019  0.3756333423036066
  0.3709903338648244  0.5973955168351018  0.3756333423036066
  0.8709903338648244  0.5973955168351018  0.3756333423036066
  0.3709903338648244  0.0973955168351019  0.8756333423036067
  0.8709903338648244  0.0973955168351019  0.8756333423036067
  0.3709903338648244  0.5973955168351018  0.8756333423036067
  0.8709903338648244  0.5973955168351018  0.8756333423036067
  0.4026044831648979  0.2735948170297191  0.3756333423036066
  0.9026044831648979  0.2735948170297191  0.3756333423036066
  0.4026044831648979  0.7735948170297191  0.3756333423036066
  0.9026044831648979  0.7735948170297191  0.3756333423036066
  0.4026044831648979  0.2735948170297191  0.8756333423036067
  0.9026044831648979  0.2735948170297191  0.8756333423036067
  0.4026044831648979  0.7735948170297191  0.8756333423036067
  0.9026044831648979  0.7735948170297191  0.8756333423036067
  0.2128395156721809  0.4972342763957109  0.1056752841123141
  0.7128395156721810  0.4972342763957109  0.1056752841123141
  0.2128395156721809  0.9972342763957109  0.1056752841123141
  0.7128395156721810  0.9972342763957109  0.1056752841123141
  0.2128395156721809  0.4972342763957109  0.6056752841123141
  0.7128395156721810  0.4972342763957109  0.6056752841123141
  0.2128395156721809  0.9972342763957109  0.6056752841123141
  0.7128395156721810  0.9972342763957109  0.6056752841123141
  0.0027657261042910  0.2156052422764702  0.1056752841123141
  0.5027657261042910  0.2156052422764702  0.1056752841123141
  0.0027657261042910  0.7156052422764703  0.1056752841123141
  0.5027657261042910  0.7156052422764703  0.1056752841123141
  0.0027657261042910  0.2156052422764702  0.6056752841123141
  0.5027657261042910  0.2156052422764702  0.6056752841123141
  0.0027657261042910  0.7156052422764703  0.6056752841123141
  0.5027657261042910  0.7156052422764703  0.6056752841123141
  0.2843947727235277  0.2871604988278154  0.1056752841123141
  0.7843947727235276  0.2871604988278154  0.1056752841123141
  0.2843947727235277  0.7871604988278154  0.1056752841123141
  0.7843947727235276  0.7871604988278154  0.1056752841123141
  0.2843947727235277  0.2871604988278154  0.6056752841123141
  0.7843947727235276  0.2871604988278154  0.6056752841123141
  0.2843947727235277  0.7871604988278154  0.6056752841123141
  0.7843947727235276  0.7871604988278154  0.6056752841123141
  0.2432522589076492  0.0236871144090527  0.3643777653356405
  0.7432522589076492  0.0236871144090527  0.3643777653356405
  0.2432522589076492  0.5236871144090528  0.3643777653356405
  0.7432522589076492  0.5236871144090528  0.3643777653356405
  0.2432522589076492  0.0236871144090527  0.8643777653356405
  0.7432522589076492  0.0236871144090527  0.8643777653356405
  0.2432522589076492  0.5236871144090528  0.8643777653356405
  0.7432522589076492  0.5236871144090528  0.8643777653356405
  0.4763128880909489  0.2195651474985968  0.3643777653356405
  0.9763128880909488  0.2195651474985968  0.3643777653356405
  0.4763128880909489  0.7195651474985968  0.3643777653356405
  0.9763128880909488  0.7195651474985968  0.3643777653356405
  0.4763128880909489  0.2195651474985968  0.8643777653356405
  0.9763128880909488  0.2195651474985968  0.8643777653356405
  0.4763128880909489  0.7195651474985968  0.8643777653356405
  0.9763128880909488  0.7195651474985968  0.8643777653356405
  0.2804348675014009  0.2567477555923497  0.3643777653356405
  0.7804348675014009  0.2567477555923497  0.3643777653356405
  0.2804348675014009  0.7567477555923496  0.3643777653356405
  0.7804348675014009  0.7567477555923496  0.3643777653356405
  0.2804348675014009  0.2567477555923497  0.8643777653356405
  0.7804348675014009  0.2567477555923497  0.8643777653356405
  0.2804348675014009  0.7567477555923496  0.8643777653356405
  0.7804348675014009  0.7567477555923496  0.8643777653356405
  0.0394108645918706  0.0953946698769020  0.2619953600531222
  0.5394108645918706  0.0953946698769020  0.2619953600531222
  0.0394108645918706  0.5953946698769020  0.2619953600531222
  0.5394108645918706  0.5953946698769020  0.2619953600531222
  0.0394108645918706  0.0953946698769020  0.7619953600531222
  0.5394108645918706  0.0953946698769020  0.7619953600531222
  0.0394108645918706  0.5953946698769020  0.7619953600531222
  0.5394108645918706  0.5953946698769020  0.7619953600531222
  0.4046053226230990  0.4440162022149714  0.2619953600531222
  0.9046053226230990  0.4440162022149714  0.2619953600531222
  0.4046053226230990  0.9440162022149714  0.2619953600531222
  0.9046053226230990  0.9440162022149714  0.2619953600531222
  0.4046053226230990  0.4440162022149714  0.7619953600531222
  0.9046053226230990  0.4440162022149714  0.7619953600531222
  0.4046053226230990  0.9440162022149714  0.7619953600531222
  0.9046053226230990  0.9440162022149714  0.7619953600531222
  0.0559838052850279  0.4605891204081280  0.2619953600531222
  0.5559838052850279  0.4605891204081280  0.2619953600531222
  0.0559838052850279  0.9605891204081280  0.2619953600531222
  0.5559838052850279  0.9605891204081280  0.2619953600531222
  0.0559838052850279  0.4605891204081280  0.7619953600531222
  0.5559838052850279  0.4605891204081280  0.7619953600531222
  0.0559838052850279  0.9605891204081280  0.7619953600531222
  0.5559838052850279  0.9605891204081280  0.7619953600531222
  0.0678288180341120  0.2876503230181761  0.2423551263270008
  0.5678288180341120  0.2876503230181761  0.2423551263270008
  0.0678288180341120  0.7876503230181761  0.2423551263270008
  0.5678288180341120  0.7876503230181761  0.2423551263270008
  0.0678288180341120  0.2876503230181761  0.7423551263270007
  0.5678288180341120  0.2876503230181761  0.7423551263270007
  0.0678288180341120  0.7876503230181761  0.7423551263270007
  0.5678288180341120  0.7876503230181761  0.7423551263270007
  0.2123496769818244  0.2801784875159379  0.2423551263270008
  0.7123496769818244  0.2801784875159379  0.2423551263270008
  0.2123496769818244  0.7801784875159379  0.2423551263270008
  0.7123496769818244  0.7801784875159379  0.2423551263270008
  0.2123496769818244  0.2801784875159379  0.7423551263270007
  0.7123496769818244  0.2801784875159379  0.7423551263270007
  0.2123496769818244  0.7801784875159379  0.7423551263270007
  0.7123496769818244  0.7801784875159379  0.7423551263270007
  0.2198215124840628  0.4321711894658904  0.2423551263270008
  0.7198215124840628  0.4321711894658904  0.2423551263270008
  0.2198215124840628  0.9321711894658904  0.2423551263270008
  0.7198215124840628  0.9321711894658904  0.2423551263270008
  0.2198215124840628  0.4321711894658904  0.7423551263270007
  0.7198215124840628  0.4321711894658904  0.7423551263270007
  0.2198215124840628  0.9321711894658904  0.7423551263270007
  0.7198215124840628  0.9321711894658904  0.7423551263270007
  0.1005818884552239  0.2692219903417632  0.4968920120464890
  0.6005818884552239  0.2692219903417632  0.4968920120464890
  0.1005818884552239  0.7692219903417632  0.4968920120464890
  0.6005818884552239  0.7692219903417632  0.4968920120464890
  0.1005818884552239  0.2692219903417632  0.9968920120464890
  0.6005818884552239  0.2692219903417632  0.9968920120464890
  0.1005818884552239  0.7692219903417632  0.9968920120464890
  0.6005818884552239  0.7692219903417632  0.9968920120464890
  0.2307780096582371  0.3313599126134606  0.4968920120464890
  0.7307780096582370  0.3313599126134606  0.4968920120464890
  0.2307780096582371  0.8313599126134606  0.4968920120464890
  0.7307780096582370  0.8313599126134606  0.4968920120464890
  0.2307780096582371  0.3313599126134606  0.9968920120464890
  0.7307780096582370  0.3313599126134606  0.9968920120464890
  0.2307780096582371  0.8313599126134606  0.9968920120464890
  0.7307780096582370  0.8313599126134606  0.9968920120464890
  0.1686401018865395  0.3994180965447749  0.4968920120464890
  0.6686401018865396  0.3994180965447749  0.4968920120464890
  0.1686401018865395  0.8994180965447749  0.4968920120464890
  0.6686401018865396  0.8994180965447749  0.4968920120464890
  0.1686401018865395  0.3994180965447749  0.9968920120464890
  0.6686401018865396  0.3994180965447749  0.9968920120464890
  0.1686401018865395  0.8994180965447749  0.9968920120464890
  0.6686401018865396  0.8994180965447749  0.9968920120464890
  0.2757857766069483  0.1005551249521106  0.0112054302062427
  0.7757857766069483  0.1005551249521106  0.0112054302062427
  0.2757857766069483  0.6005551249521106  0.0112054302062427
  0.7757857766069483  0.6005551249521106  0.0112054302062427
  0.2757857766069483  0.1005551249521106  0.5112054302062427
  0.7757857766069483  0.1005551249521106  0.5112054302062427
  0.2757857766069483  0.6005551249521106  0.5112054302062427
  0.7757857766069483  0.6005551249521106  0.5112054302062427
  0.3994448750478889  0.1752306521548428  0.0112054302062427
  0.8994448750478889  0.1752306521548428  0.0112054302062427
  0.3994448750478889  0.6752306521548428  0.0112054302062427
  0.8994448750478889  0.6752306521548428  0.0112054302062427
  0.3994448750478889  0.1752306521548428  0.5112054302062427
  0.8994448750478889  0.1752306521548428  0.5112054302062427
  0.3994448750478889  0.6752306521548428  0.5112054302062427
  0.8994448750478889  0.6752306521548428  0.5112054302062427
  0.3247693478451572  0.2242142233930519  0.0112054302062427
  0.8247693478451572  0.2242142233930519  0.0112054302062427
  0.3247693478451572  0.7242142233930519  0.0112054302062427
  0.8247693478451572  0.7242142233930519  0.0112054302062427
  0.3247693478451572  0.2242142233930519  0.5112054302062427
  0.8247693478451572  0.2242142233930519  0.5112054302062427
  0.3247693478451572  0.7242142233930519  0.5112054302062427
  0.8247693478451572  0.7242142233930519  0.5112054302062427
  0.0000000000000000  0.0000000000000000  0.0293104372831429
  0.5000000000000000  0.0000000000000000  0.0293104372831429
  0.0000000000000000  0.5000000000000000  0.0293104372831429
  0.5000000000000000  0.5000000000000000  0.0293104372831429
  0.0000000000000000  0.0000000000000000  0.5293104372831430
  0.5000000000000000  0.0000000000000000  0.5293104372831430
  0.0000000000000000  0.5000000000000000  0.5293104372831430
  0.5000000000000000  0.5000000000000000  0.5293104372831430
  0.1667067150337622  0.1608384843481016  0.2541655864903726
  0.6667067150337622  0.1608384843481016  0.2541655864903726
  0.1667067150337622  0.6608384843481016  0.2541655864903726
  0.6667067150337622  0.6608384843481016  0.2541655864903726
  0.1667067150337622  0.1608384843481016  0.7541655864903727
  0.6667067150337622  0.1608384843481016  0.7541655864903727
  0.1667067150337622  0.6608384843481016  0.7541655864903727
  0.6667067150337622  0.6608384843481016  0.7541655864903727
  0.3391615006519008  0.0058682306856606  0.2541655864903726
  0.8391615006519008  0.0058682306856606  0.2541655864903726
  0.3391615006519008  0.5058682306856606  0.2541655864903726
  0.8391615006519008  0.5058682306856606  0.2541655864903726
  0.3391615006519008  0.0058682306856606  0.7541655864903727
  0.8391615006519008  0.0058682306856606  0.7541655864903727
  0.3391615006519008  0.5058682306856606  0.7541655864903727
  0.8391615006519008  0.5058682306856606  0.7541655864903727
  0.4941317693143389  0.3332932999662392  0.2541655864903726
  0.9941317693143390  0.3332932999662392  0.2541655864903726
  0.4941317693143389  0.8332932999662392  0.2541655864903726
  0.9941317693143390  0.8332932999662392  0.2541655864903726
  0.4941317693143389  0.3332932999662392  0.7541655864903727
  0.9941317693143390  0.3332932999662392  0.7541655864903727
  0.4941317693143389  0.8332932999662392  0.7541655864903727
  0.9941317693143390  0.8332932999662392  0.7541655864903727
  0.1752214533109779  0.0220836844387747  0.2448743557099692
  0.6752214533109779  0.0220836844387747  0.2448743557099692
  0.1752214533109779  0.5220836844387747  0.2448743557099692
  0.6752214533109779  0.5220836844387747  0.2448743557099692
  0.1752214533109779  0.0220836844387747  0.7448743557099693
  0.6752214533109779  0.0220836844387747  0.7448743557099693
  0.1752214533109779  0.5220836844387747  0.7448743557099693
  0.6752214533109779  0.5220836844387747  0.7448743557099693
  0.4779163230612242  0.1531377613722079  0.2448743557099692
  0.9779163230612242  0.1531377613722079  0.2448743557099692
  0.4779163230612242  0.6531377613722078  0.2448743557099692
  0.9779163230612242  0.6531377613722078  0.2448743557099692
  0.4779163230612242  0.1531377613722079  0.7448743557099693
  0.9779163230612242  0.1531377613722079  0.7448743557099693
  0.4779163230612242  0.6531377613722078  0.7448743557099693
  0.9779163230612242  0.6531377613722078  0.7448743557099693
  0.3468622386277921  0.3247785321890191  0.2448743557099692
  0.8468622386277922  0.3247785321890191  0.2448743557099692
  0.3468622386277921  0.8247785321890191  0.2448743557099692
  0.8468622386277922  0.8247785321890191  0.2448743557099692
  0.3468622386277921  0.3247785321890191  0.7448743557099693
  0.8468622386277922  0.3247785321890191  0.7448743557099693
  0.3468622386277921  0.8247785321890191  0.7448743557099693
  0.8468622386277922  0.8247785321890191  0.7448743557099693
  0.0075910800066118  0.2917897896312860  0.4903464548563340
  0.5075910800066118  0.2917897896312860  0.4903464548563340
  0.0075910800066118  0.7917897896312860  0.4903464548563340
  0.5075910800066118  0.7917897896312860  0.4903464548563340
  0.0075910800066118  0.2917897896312860  0.9903464548563340
  0.5075910800066118  0.2917897896312860  0.9903464548563340
  0.0075910800066118  0.7917897896312860  0.9903464548563340
  0.5075910800066118  0.7917897896312860  0.9903464548563340
  0.2082102103687140  0.2158012968753247  0.4903464548563340
  0.7082102103687140  0.2158012968753247  0.4903464548563340
  0.2082102103687140  0.7158012968753247  0.4903464548563340
  0.7082102103687140  0.7158012968753247  0.4903464548563340
  0.2082102103687140  0.2158012968753247  0.9903464548563340
  0.7082102103687140  0.2158012968753247  0.9903464548563340
  0.2082102103687140  0.7158012968753247  0.9903464548563340
  0.7082102103687140  0.7158012968753247  0.9903464548563340
  0.2841987181246768  0.4924089289933894  0.4903464548563340
  0.7841987181246768  0.4924089289933894  0.4903464548563340
  0.2841987181246768  0.9924089289933895  0.4903464548563340
  0.7841987181246768  0.9924089289933895  0.4903464548563340
  0.2841987181246768  0.4924089289933894  0.9903464548563340
  0.7841987181246768  0.4924089289933894  0.9903464548563340
  0.2841987181246768  0.9924089289933895  0.9903464548563340
  0.7841987181246768  0.9924089289933895  0.9903464548563340
  0.0718854299264123  0.1536047239461759  0.4984831958286276
  0.5718854299264123  0.1536047239461759  0.4984831958286276
  0.0718854299264123  0.6536047239461759  0.4984831958286276
  0.5718854299264123  0.6536047239461759  0.4984831958286276
  0.0718854299264123  0.1536047239461759  0.9984831958286275
  0.5718854299264123  0.1536047239461759  0.9984831958286275
  0.0718854299264123  0.6536047239461759  0.9984831958286275
  0.5718854299264123  0.6536047239461759  0.9984831958286275
  0.3463952910538227  0.4182807134802354  0.4984831958286276
  0.8463952910538226  0.4182807134802354  0.4984831958286276
  0.3463952910538227  0.9182807134802353  0.4984831958286276
  0.8463952910538226  0.9182807134802353  0.4984831958286276
  0.3463952910538227  0.4182807134802354  0.9984831958286275
  0.8463952910538226  0.4182807134802354  0.9984831958286275
  0.3463952910538227  0.9182807134802353  0.9984831958286275
  0.8463952910538226  0.9182807134802353  0.9984831958286275
  0.0817192940197632  0.4281145775735865  0.4984831958286276
  0.5817192940197633  0.4281145775735865  0.4984831958286276
  0.0817192940197632  0.9281145775735864  0.4984831958286276
  0.5817192940197633  0.9281145775735864  0.4984831958286276
  0.0817192940197632  0.4281145775735865  0.9984831958286275
  0.5817192940197633  0.4281145775735865  0.9984831958286275
  0.0817192940197632  0.9281145775735864  0.9984831958286275
  0.5817192940197633  0.9281145775735864  0.9984831958286275
  0.1531556714221912  0.0556161823017549  0.0081782504217727
  0.6531556714221912  0.0556161823017549  0.0081782504217727
  0.1531556714221912  0.5556161823017549  0.0081782504217727
  0.6531556714221912  0.5556161823017549  0.0081782504217727
  0.1531556714221912  0.0556161823017549  0.5081782504217727
  0.6531556714221912  0.0556161823017549  0.5081782504217727
  0.1531556714221912  0.5556161823017549  0.5081782504217727
  0.6531556714221912  0.5556161823017549  0.5081782504217727
  0.4443838326982427  0.0975394891204366  0.0081782504217727
  0.9443838326982427  0.0975394891204366  0.0081782504217727
  0.4443838326982427  0.5975394891204365  0.0081782504217727
  0.9443838326982427  0.5975394891204365  0.0081782504217727
  0.4443838326982427  0.0975394891204366  0.5081782504217727
  0.9443838326982427  0.0975394891204366  0.5081782504217727
  0.4443838326982427  0.5975394891204365  0.5081782504217727
  0.9443838326982427  0.5975394891204365  0.5081782504217727
  0.4024605258795645  0.3468443285778087  0.0081782504217727
  0.9024605258795645  0.3468443285778087  0.0081782504217727
  0.4024605258795645  0.8468443285778087  0.0081782504217727
  0.9024605258795645  0.8468443285778087  0.0081782504217727
  0.4024605258795645  0.3468443285778087  0.5081782504217727
  0.9024605258795645  0.3468443285778087  0.5081782504217727
  0.4024605258795645  0.8468443285778087  0.5081782504217727
  0.9024605258795645  0.8468443285778087  0.5081782504217727
  0.3333333435000014  0.1666666714999998  0.1647614171393323
  0.8333333435000014  0.1666666714999998  0.1647614171393323
  0.3333333435000014  0.6666666714999998  0.1647614171393323
  0.8333333435000014  0.6666666714999998  0.1647614171393323
  0.3333333435000014  0.1666666714999998  0.6647614171393323
  0.8333333435000014  0.1666666714999998  0.6647614171393323
  0.3333333435000014  0.6666666714999998  0.6647614171393323
  0.8333333435000014  0.6666666714999998  0.6647614171393323
  0.1666666714999998  0.3333333435000014  0.1373269479740546
  0.6666666714999998  0.3333333435000014  0.1373269479740546
  0.1666666714999998  0.8333333435000014  0.1373269479740546
  0.6666666714999998  0.8333333435000014  0.1373269479740546
  0.1666666714999998  0.3333333435000014  0.6373269479740546
  0.6666666714999998  0.3333333435000014  0.6373269479740546
  0.1666666714999998  0.8333333435000014  0.6373269479740546
  0.6666666714999998  0.8333333435000014  0.6373269479740546
  0.1666666714999998  0.3333333435000014  0.3576656547858020
  0.6666666714999998  0.3333333435000014  0.3576656547858020
  0.1666666714999998  0.8333333435000014  0.3576656547858020
  0.6666666714999998  0.8333333435000014  0.3576656547858020
  0.1666666714999998  0.3333333435000014  0.8576656547858019
  0.6666666714999998  0.3333333435000014  0.8576656547858019
  0.1666666714999998  0.8333333435000014  0.8576656547858019
  0.6666666714999998  0.8333333435000014  0.8576656547858019
  0.3333333435000014  0.1666666714999998  0.3708930820600088
  0.8333333435000014  0.1666666714999998  0.3708930820600088
  0.3333333435000014  0.6666666714999998  0.3708930820600088
  0.8333333435000014  0.6666666714999998  0.3708930820600088
  0.3333333435000014  0.1666666714999998  0.8708930820600088
  0.8333333435000014  0.1666666714999998  0.8708930820600088
  0.3333333435000014  0.6666666714999998  0.8708930820600088
  0.8333333435000014  0.6666666714999998  0.8708930820600088
  0.0000000000000000  0.0000000000000000  0.1737329447431595
  0.5000000000000000  0.0000000000000000  0.1737329447431595
  0.0000000000000000  0.5000000000000000  0.1737329447431595
  0.5000000000000000  0.5000000000000000  0.1737329447431595
  0.0000000000000000  0.0000000000000000  0.6737329447431595
  0.5000000000000000  0.0000000000000000  0.6737329447431595
  0.0000000000000000  0.5000000000000000  0.6737329447431595
  0.5000000000000000  0.5000000000000000  0.6737329447431595
  0.0000000000000000  0.0000000000000000  0.3847716332735052
  0.5000000000000000  0.0000000000000000  0.3847716332735052
  0.0000000000000000  0.5000000000000000  0.3847716332735052
  0.5000000000000000  0.5000000000000000  0.3847716332735052
  0.0000000000000000  0.0000000000000000  0.8847716332735052
  0.5000000000000000  0.0000000000000000  0.8847716332735052
  0.0000000000000000  0.5000000000000000  0.8847716332735052
  0.5000000000000000  0.5000000000000000  0.8847716332735052
