generated by phonopy                    
    1.000000000000000     
    12.9032000000000000    0.0000000000000000    0.0000000000000000
     0.0000000000000000   12.9032000000000000    0.0000000000000000
     0.0000000000000000    0.0000000000000000   11.9553000000000011
   Tl   Cu   Se
    12    60    36
Direct
  0.1132967292959969  0.0640147178820559  0.9656267634651720
  0.1133822052717495  0.0752803530288608  0.2941901157018693
  0.1006005082590436  0.0688717048301011  0.6400695068790641
  0.3860922891166133  0.5900509839475735  0.1302484871260804
  0.3943147501527827  0.6006393643513593  0.4866475940376950
  0.3779067693619295  0.5856000094222389  0.8014304055623627
  0.5905689167384280  0.3618110742965162  0.1444676697346421
  0.6021060769345733  0.3611680143054817  0.4694436477733755
  0.5812307523405084  0.3401061126721442  0.8172360981498712
  0.8607886934890563  0.8371648317873990  0.9989946969157388
  0.8736748260744412  0.8658215161593311  0.3128942646649270
  0.8801985236721903  0.8463240149239805  0.6621821508237727
  0.8360283682463538  0.1741235796306446  0.9699257371268168
  0.8208069964412480  0.1528340712962705  0.3141062960356254
  0.8005297606841653  0.0978176657245627  0.6400809034682385
  0.2934318644481432  0.2843063201582425  0.1283751407840906
  0.2914976503222499  0.3199986849928880  0.4687254556521002
  0.3112506411033215  0.3310506778899283  0.8106757335860687
  0.6844319035867277  0.6362899280980872  0.1482368813624317
  0.6816530079514168  0.6286827230090057  0.4807571671557919
  0.6737796812723476  0.6249215568303256  0.8052708385752533
  0.1903770122178377  0.7870618645127323  0.9568508065502037
  0.1261920332839881  0.7419348007616315  0.2887410361422167
  0.1261751070680862  0.8177834216267051  0.6387463622903410
  0.1869918361286340  0.3465937323123607  0.9655908810922432
  0.1862480396656128  0.3800520680887566  0.2842881960734591
  0.2001616619402917  0.4072299278392528  0.6391222489105735
  0.0648303811859340  0.6658338606046175  0.1135354563077302
  0.0599216396876617  0.6803647831825999  0.4867105011396056
  0.0820147062455738  0.6818117175592615  0.8131368809123978
  0.8864348038555713  0.2697542727063237  0.1577896924474825
  0.9081777033351280  0.2370316654432534  0.5359825068297573
  0.9226276954910959  0.2403156080928914  0.7685627845898785
  0.7755645223130366  0.5429865872358801 -0.0329357462342762
  0.7873825263541516  0.5726584324392200  0.3220987781260545
  0.7905587852538555  0.5492039799989251  0.6391654424224762
  0.6998380286982555  0.0344673469900591  0.1477284482582289
  0.7178665169854195 -0.0070251770348603  0.4863921084929831
  0.7044771931110048  1.0196747357314619  0.8258831294636589
  0.2573078844299028  0.9105018810844411  0.2003142635300877
  0.2709544316475554  0.8934332361675748  0.4829995476900074
  0.2689390368173234  0.9106295891878990  0.8027976456743453
  0.4468328352425743  0.2146729465296209  0.9551302702885154
  0.4552510797362271  0.2071194637017668  0.3211084493130683
  0.4202717890239380  0.1927195003660869  0.6446257610747544
  0.5806671271403189  0.7690948549541861  0.9681420754581747
  0.5481035243911014  0.7499202401241509  0.3014066244897978
  0.5473494329098016  0.7372734064114000  0.6684734927710398
  0.9925753541877776  0.3398579394121884  0.9492690500640374
 -0.0077361320502829  0.3644953025311322  0.3064092648486149
  1.0036193525533794  0.3819017923482792  0.6380478140503383
  0.0658087280831578  0.4568488412314415  0.1076005199215444
  0.1040236548890636  0.4821989875887795  0.4671265552930390
  0.0875508481819558  0.4698893901313508  0.8098934901500816
  0.8776200459041470  0.4625706797421524  0.1660924116499464
  0.9051818559047975  0.4634331748695522  0.4484089281133087
  0.8686433411925165  0.4361734298587879  0.8091473311521256
  0.9673447751937628  0.5620202628595359  0.9707202509336083
 -0.0001480448020752  0.5824910225241972  0.3039586732275553
  0.9758717142914434  0.5859838349216930  0.6575948409319797
  0.5081765223306354  0.0612011441549492  0.1494077698528695
  0.5141448571753225  0.0592891210618458  0.4787977762747310
  0.5132486655519110  0.0819186174100133  0.7969887305230344
  0.4461943632686886  0.8597324539943505  0.1575350521216874
  0.4734278149312716  0.8657006904579490  0.4744495421362893
  0.4684076258801836  0.8781583088382006  0.8318621256222178
  0.3622483726046166  0.9734871270990065  0.9828876191725952
  0.3938700100952737  0.9930285360720477  0.3240732479568573
  0.3765720439777468  0.0014760473071827  0.6279979373812341
  0.5906153224461153  0.9451586240306569  0.9942410489852092
  0.5973817491329433  0.9373728236780053  0.3207578632275485
  0.6050906021752240  0.9655899830090048  0.6563473281266240
  0.3743256124373499  0.3880883265186429  0.9821523780474719
  0.3772612859777317  0.3595701317276045  0.2975825934259604
  0.3886543265193556  0.3811448234183935  0.6334264430607786
  0.0873512920267226  0.8561243970640032  0.1287238763156947
  0.0937841033288375  0.8635247875548046  0.4525731015442427
  0.0848833745353799  0.8633605202379777  0.8198431534745155
  0.8806854703876351  0.0836223722822731  0.1372302435982165
  0.8955361836778020  0.0620051600133318  0.4661062678283951
  0.8831961470347560  0.0647310004747333  0.8131305503320081
  0.5956051752854225  0.5849633686027158  0.9764117690464268
  0.5769552757524120  0.5728718238650140  0.3198959113788792
  0.5969309220370685  0.5623691946765578  0.6496439565456775
  0.6047171346619377  0.1335154559797999  0.9706967382022074
  0.6201327282009745  0.1250305255788024  0.3157823171588498
  0.6124742377313782  0.1535900782260419  0.6333716824660719
  0.3230605081375421  0.0927260263037344  0.1485929716913060
  0.3262688728120606  0.1044936174551113  0.4729873090265467
  0.3340586386778136  0.1018711542708333  0.8147258494680170
  0.6449794356780166  0.8283934557971530  0.1517602538860156
  0.6497925611382306  0.8229177285942039  0.5021654996589556
  0.6532369412994736  0.8388392951677713  0.8027191919474604
  0.3666686564195837  0.7879561382485639  0.9867570737146918
  0.3576695138290905  0.7993040595990746  0.3206473316989193
  0.3594343708350463  0.8171723737823584  0.6536837597652440
  0.0933110146754310  0.2697404511927433  0.1346358961507855
  0.0948076554172295  0.2920435279842720  0.4751675649801264
  0.1097002826090056  0.2802486447693193  0.7860158686674811
  0.8829086078347863  0.6501259394757211  0.1484670370171597
  0.8738622822522839  0.6546469232666080  0.4859198122037560
  0.8800469474452927  0.6475602019295200  0.8256734534853494
  0.1639041412913278  0.5621424721092531  0.9605277629219641
  0.2002126279397704  0.5661960635331559  0.3107735473845500
  0.1673756794105851  0.5834855505371367  0.6499164916778374
  0.8076881006534194  0.3505598021313073 -0.0148395482069004
  0.7967505111193741  0.3641440145046609  0.3259514630066204
  0.8093475065381776  0.3621287375835767  0.6370575012870145
 
 -0.30328188E-02 -0.11665061E-02  0.11556204E-03
 -0.39323282E-03  0.15493519E-02  0.18531070E-02
 -0.14678285E-02 -0.10697007E-02  0.14122927E-02
 -0.37841929E-03 -0.13851079E-02 -0.12620436E-02
 -0.58214660E-03  0.14591475E-02 -0.49301006E-03
  0.10587323E-02 -0.13333388E-03  0.13465118E-02
 -0.76313424E-04 -0.36807554E-03  0.85286288E-03
 -0.13103825E-02  0.11060781E-02  0.18653393E-02
 -0.13399383E-02  0.18031702E-02 -0.17691255E-03
  0.10809783E-02  0.69029253E-03  0.34740013E-03
 -0.14270723E-02 -0.65931991E-03 -0.13002426E-02
 -0.19479470E-02  0.11152913E-03  0.12951740E-03
  0.28710997E-02 -0.19865997E-02 -0.17184411E-02
  0.26355815E-02 -0.16985935E-02 -0.78976406E-03
 -0.10462756E-02  0.36225695E-02  0.13258524E-02
  0.11271311E-02 -0.26053007E-02 -0.94222972E-03
 -0.18628265E-03 -0.31120306E-02  0.48397999E-03
 -0.17070746E-02  0.45832276E-02 -0.60239198E-03
 -0.22932244E-02 -0.67265886E-03 -0.14932846E-02
  0.48670469E-03 -0.17610240E-02 -0.27940438E-02
  0.17847267E-02  0.11467503E-02  0.13165717E-02
  0.80885228E-03  0.36070010E-02  0.30394938E-04
 -0.32067615E-02  0.11911047E-02  0.54765885E-03
 -0.65044938E-03 -0.12063902E-02  0.18760494E-02
 -0.40380060E-03 -0.13514479E-02  0.38095445E-03
 -0.72544456E-04  0.23637521E-02  0.22405978E-02
  0.27443342E-02  0.25112594E-02 -0.11715636E-02
 -0.33415401E-03  0.59323087E-03  0.21518091E-02
  0.15160684E-02 -0.18644044E-02  0.21327458E-02
  0.56231692E-03 -0.34634110E-02  0.29994973E-02
 -0.21663221E-03  0.24713704E-02  0.15884611E-03
 -0.13577985E-02  0.29355417E-02  0.99478036E-03
 -0.13502851E-02  0.82827232E-03 -0.18716061E-02
  0.35803654E-02 -0.11654891E-02  0.97334170E-03
  0.65436612E-03  0.26760318E-02  0.96094467E-04
 -0.26614771E-02 -0.17435107E-02  0.89780877E-03
 -0.57990392E-02  0.21183603E-02 -0.88467691E-03
 -0.28181406E-03  0.22508616E-02 -0.92890692E-03
 -0.65228850E-03  0.15153701E-02 -0.18767736E-02
 -0.83124690E-03 -0.42463220E-02  0.14343300E-02
 -0.15694625E-02 -0.67183399E-03  0.26213460E-02
 -0.50259597E-03  0.18283676E-02  0.70545618E-03
  0.78400370E-03  0.73567391E-04  0.62621517E-03
 -0.13622752E-02  0.33581057E-03  0.29494119E-02
 -0.16584753E-02  0.80606220E-03 -0.14441111E-02
  0.68210298E-03 -0.19613806E-02  0.14537026E-02
 -0.13880543E-02  0.38998465E-02 -0.31614165E-02
  0.65363732E-03  0.65703652E-03  0.20190220E-02
  0.28942759E-02  0.10704458E-02  0.21001005E-02
  0.24403845E-02  0.48166834E-03  0.30195011E-02
  0.40832410E-03 -0.49539245E-03 -0.32457519E-02
 -0.25481236E-02  0.28769453E-02  0.10799332E-02
 -0.65928223E-03  0.98880709E-04 -0.46672600E-03
 -0.20238511E-02 -0.27615686E-02 -0.26297445E-03
  0.19317131E-02 -0.34948996E-03  0.39831318E-02
  0.92164063E-03 -0.65184106E-03 -0.53465632E-03
  0.16538759E-02 -0.87423129E-05  0.16511349E-02
  0.10044982E-02  0.91155324E-03 -0.47795646E-02
 -0.11694934E-02  0.32011004E-03  0.12997214E-03
  0.12774881E-02  0.64122084E-03 -0.13631540E-02
 -0.70179469E-03 -0.24304967E-02  0.54152870E-03
  0.27600480E-02 -0.15064107E-02  0.19140154E-03
  0.56532120E-02 -0.12652658E-02 -0.60629742E-03
  0.29794069E-02  0.31106521E-02 -0.81103220E-03
 -0.79600547E-03 -0.32671012E-02  0.16011596E-02
 -0.29613180E-02 -0.94825034E-03 -0.89199731E-03
  0.36517131E-02  0.19109938E-02 -0.36662567E-02
 -0.20027318E-02  0.13612763E-02 -0.49222825E-03
  0.49358631E-02 -0.14456756E-02  0.19062912E-02
 -0.86290828E-03 -0.58241328E-03  0.95399062E-03
 -0.10591784E-02 -0.58110915E-03 -0.56452970E-04
  0.26470587E-02 -0.29330359E-02 -0.20777477E-03
 -0.52654315E-02 -0.36895853E-02 -0.13237098E-02
  0.18292248E-02  0.22534317E-03 -0.15434800E-02
  0.91684929E-03 -0.89930802E-04 -0.14786632E-02
 -0.47202288E-03 -0.13819371E-02 -0.63272123E-03
 -0.16531066E-02  0.19453256E-02 -0.23073292E-02
  0.54315255E-03 -0.98359718E-04 -0.23482263E-02
  0.69869245E-04 -0.11989417E-02 -0.16443876E-02
 -0.32876252E-02 -0.16565041E-02 -0.18025326E-02
 -0.44673552E-03  0.10613166E-03 -0.34558328E-02
 -0.12739288E-02  0.24188001E-02 -0.23480556E-02
 -0.38025187E-02  0.14692046E-02 -0.35536767E-02
 -0.13133308E-02  0.14912849E-02  0.10313161E-02
 -0.25379409E-04 -0.19831229E-02 -0.15740189E-02
  0.15023928E-03 -0.10128152E-02 -0.12919082E-02
 -0.19170269E-03  0.73409846E-04 -0.20269052E-02
 -0.62530965E-03 -0.44071734E-02 -0.10073029E-02
 -0.13667414E-02 -0.17593147E-02  0.49405605E-04
  0.62782107E-03 -0.37048662E-02 -0.69425320E-03
 -0.16173052E-03  0.89942544E-03 -0.12462192E-02
 -0.12532205E-02 -0.11413003E-03  0.21140863E-02
 -0.17937634E-02 -0.29847809E-03  0.16572469E-03
 -0.25254785E-02 -0.19475521E-02  0.18235509E-02
  0.18684370E-03  0.15599229E-02  0.62958387E-03
  0.95704257E-04  0.48390810E-03 -0.10101055E-02
 -0.56839357E-03 -0.74253872E-03 -0.12229403E-02
 -0.16173112E-02  0.44878595E-02  0.13192428E-02
 -0.21594685E-03 -0.10390169E-03 -0.24153836E-02
  0.10301727E-02  0.80557972E-03 -0.10144014E-02
  0.13501766E-02  0.14592653E-02 -0.21153072E-02
 -0.14125187E-02 -0.53444742E-03 -0.10958950E-02
  0.17220362E-02 -0.72316950E-03  0.20071396E-02
  0.18008488E-02  0.40447108E-02  0.97936014E-03
 -0.69036191E-03 -0.43443762E-03 -0.14510216E-02
  0.10061452E-02 -0.15853616E-02  0.21885089E-03
 -0.26917244E-02  0.24149399E-02  0.17545211E-02
 -0.23713914E-03 -0.20218710E-02  0.15499849E-02
 
            1
   0.5000000000000000     
  0.10000000E+01  0.00000000E+00  0.00000000E+00  0.00000000E+00
  0.11317921E+00  0.63969516E-01  0.96563160E+00
  0.11336697E+00  0.75340391E-01  0.29426762E+00
  0.10054363E+00  0.68830254E-01  0.64012857E+00
  0.38607763E+00  0.58999731E+00  0.13019571E+00
  0.39429219E+00  0.60069591E+00  0.48662698E+00
  0.37794780E+00  0.58559484E+00  0.80148672E+00
  0.59056596E+00  0.36179681E+00  0.14450334E+00
  0.60205530E+00  0.36121087E+00  0.46952166E+00
  0.58117883E+00  0.34017599E+00  0.81722870E+00
  0.86083058E+00  0.83719158E+00  0.99900923E+00
  0.87361953E+00  0.86579597E+00  0.31283989E+00
  0.88012304E+00  0.84632834E+00  0.66218757E+00
  0.83613962E+00  0.17404660E+00  0.96985387E+00
  0.82090913E+00  0.15276825E+00  0.31407327E+00
  0.80048922E+00  0.97958041E-01  0.64013635E+00
  0.29347554E+00  0.28420536E+00  0.12833573E+00
  0.29149043E+00  0.31987809E+00  0.46874570E+00
  0.31118449E+00  0.33122828E+00  0.81065054E+00
  0.68434304E+00  0.63626386E+00  0.14817443E+00
  0.68167187E+00  0.62861448E+00  0.48064031E+00
  0.67384884E+00  0.62496599E+00  0.80532590E+00
  0.19040836E+00  0.78720164E+00  0.95685208E+00
  0.12606777E+00  0.74198096E+00  0.28876394E+00
  0.12614990E+00  0.81773667E+00  0.63882482E+00
  0.18697619E+00  0.34654136E+00  0.96560681E+00
  0.18624523E+00  0.38014366E+00  0.28438190E+00
  0.20026801E+00  0.40732724E+00  0.63907325E+00
  0.64817433E-01  0.66585685E+00  0.11362545E+00
  0.59980387E-01  0.68029254E+00  0.48679970E+00
  0.82036496E-01  0.68167751E+00  0.81326233E+00
  0.88642641E+00  0.26985004E+00  0.15779634E+00
  0.90812509E+00  0.23714542E+00  0.53602411E+00
  0.92257537E+00  0.24034770E+00  0.76848451E+00
  0.77570326E+00  0.54294142E+00  0.96710496E+00
  0.78740788E+00  0.57276213E+00  0.32210280E+00
  0.79045565E+00  0.54913642E+00  0.63920299E+00
  0.69961332E+00  0.34549434E-01  0.14769145E+00
  0.71785560E+00  0.99306204E+00  0.48635326E+00
  0.70445192E+00  0.19733456E-01  0.82580464E+00
  0.25727567E+00  0.91033734E+00  0.20037425E+00
  0.27089361E+00  0.89340720E+00  0.48310918E+00
  0.26891956E+00  0.91070044E+00  0.80282715E+00
  0.44686322E+00  0.21467580E+00  0.95515646E+00
  0.45519829E+00  0.20713248E+00  0.32123180E+00
  0.42020752E+00  0.19275074E+00  0.64456536E+00
  0.58069356E+00  0.76901885E+00  0.96820287E+00
  0.54804974E+00  0.75007136E+00  0.30127441E+00
  0.54737476E+00  0.73729887E+00  0.66855793E+00
  0.99268751E+00  0.33989942E+00  0.94935688E+00
  0.99235843E+00  0.36451397E+00  0.30653555E+00
  0.36351751E-02  0.38188260E+00  0.63791207E+00
  0.65709988E-01  0.45696032E+00  0.10764569E+00
  0.10399811E+00  0.48220282E+00  0.46710704E+00
  0.87472424E-01  0.46978238E+00  0.80988249E+00
  0.87769490E+00  0.46255714E+00  0.16625900E+00
  0.90521757E+00  0.46340792E+00  0.44838657E+00
  0.86870743E+00  0.43617309E+00  0.80921639E+00
  0.96738370E+00  0.56205559E+00  0.97052036E+00
  0.99980664E+00  0.58250343E+00  0.30396411E+00
  0.97592122E+00  0.58600868E+00  0.65753783E+00
  0.50814933E+00  0.61106962E-01  0.14943042E+00
  0.51425181E+00  0.59230748E-01  0.47880578E+00
  0.51346773E+00  0.81869588E-01  0.79696337E+00
  0.44630982E+00  0.85985299E+00  0.15750113E+00
  0.47339697E+00  0.86557409E+00  0.47451651E+00
  0.46829287E+00  0.87812156E+00  0.83182482E+00
  0.36238988E+00  0.97356118E+00  0.98273429E+00
  0.39379240E+00  0.99308129E+00  0.32405266E+00
  0.37676331E+00  0.14200273E-02  0.62807766E+00
  0.59058188E+00  0.94513606E+00  0.99428095E+00
  0.59734071E+00  0.93735031E+00  0.32075550E+00
  0.60519318E+00  0.96547633E+00  0.65633864E+00
  0.37412158E+00  0.38794535E+00  0.98209702E+00
  0.37733217E+00  0.35957886E+00  0.29751804E+00
  0.38868985E+00  0.38114134E+00  0.63336460E+00
  0.87333001E-01  0.85607085E+00  0.12869741E+00
  0.93720045E-01  0.86360017E+00  0.45247660E+00
  0.84904422E-01  0.86335671E+00  0.81974494E+00
  0.88068818E+00  0.83575913E-01  0.13716147E+00
  0.89540879E+00  0.61940970E-01  0.46603088E+00
  0.88317884E+00  0.64735113E-01  0.81298602E+00
  0.59555581E+00  0.58505710E+00  0.97631357E+00
  0.57680793E+00  0.57292876E+00  0.31974729E+00
  0.59688003E+00  0.56242698E+00  0.64968709E+00
  0.60471615E+00  0.13343861E+00  0.97063091E+00
  0.62013855E+00  0.12499128E+00  0.31572829E+00
  0.61246681E+00  0.15359292E+00  0.63328691E+00
  0.32303628E+00  0.92555248E-01  0.14855084E+00
  0.32621591E+00  0.10442544E+00  0.47298938E+00
  0.33408297E+00  0.10172759E+00  0.81469681E+00
  0.64497317E+00  0.82842831E+00  0.15170813E+00
  0.64974400E+00  0.82291331E+00  0.50225392E+00
  0.65316743E+00  0.83882773E+00  0.80272612E+00
  0.36657079E+00  0.78788067E+00  0.98683334E+00
  0.35767675E+00  0.79936451E+00  0.32067366E+00
  0.35943808E+00  0.81719113E+00  0.65364151E+00
  0.93288989E-01  0.26971168E+00  0.13458475E+00
  0.94744984E-01  0.29221743E+00  0.47522274E+00
  0.10969191E+00  0.28024462E+00  0.78591485E+00
  0.88294853E+00  0.65015716E+00  0.14842461E+00
  0.87391460E+00  0.65470347E+00  0.48583134E+00
  0.87999221E+00  0.64753949E+00  0.82562762E+00
  0.16397087E+00  0.56211445E+00  0.96061171E+00
  0.20028241E+00  0.56635280E+00  0.31081451E+00
  0.16734893E+00  0.58346872E+00  0.64985581E+00
  0.80772709E+00  0.35049837E+00  0.98516960E+00
  0.79664621E+00  0.36423759E+00  0.32602484E+00
  0.80933832E+00  0.36205039E+00  0.63712233E+00
  0.00000000E+00  0.00000000E+00  0.00000000E+00
  0.00000000E+00  0.00000000E+00  0.00000000E+00
  0.00000000E+00  0.00000000E+00  0.00000000E+00
  0.00000000E+00  0.00000000E+00  0.00000000E+00
  0.00000000E+00  0.00000000E+00  0.00000000E+00
  0.00000000E+00  0.00000000E+00  0.00000000E+00
  0.00000000E+00  0.00000000E+00  0.00000000E+00
  0.00000000E+00  0.00000000E+00  0.00000000E+00
  0.00000000E+00  0.00000000E+00  0.00000000E+00
  0.00000000E+00  0.00000000E+00  0.00000000E+00
  0.00000000E+00  0.00000000E+00  0.00000000E+00
  0.00000000E+00  0.00000000E+00  0.00000000E+00
  0.00000000E+00  0.00000000E+00  0.00000000E+00
  0.00000000E+00  0.00000000E+00  0.00000000E+00
  0.00000000E+00  0.00000000E+00  0.00000000E+00
  0.00000000E+00  0.00000000E+00  0.00000000E+00
  0.00000000E+00  0.00000000E+00  0.00000000E+00
  0.00000000E+00  0.00000000E+00  0.00000000E+00
  0.00000000E+00  0.00000000E+00  0.00000000E+00
  0.00000000E+00  0.00000000E+00  0.00000000E+00
  0.00000000E+00  0.00000000E+00  0.00000000E+00
  0.00000000E+00  0.00000000E+00  0.00000000E+00
  0.00000000E+00  0.00000000E+00  0.00000000E+00
  0.00000000E+00  0.00000000E+00  0.00000000E+00
  0.00000000E+00  0.00000000E+00  0.00000000E+00
  0.00000000E+00  0.00000000E+00  0.00000000E+00
  0.00000000E+00  0.00000000E+00  0.00000000E+00
  0.00000000E+00  0.00000000E+00  0.00000000E+00
  0.00000000E+00  0.00000000E+00  0.00000000E+00
  0.00000000E+00  0.00000000E+00  0.00000000E+00
  0.00000000E+00  0.00000000E+00  0.00000000E+00
  0.00000000E+00  0.00000000E+00  0.00000000E+00
  0.00000000E+00  0.00000000E+00  0.00000000E+00
  0.00000000E+00  0.00000000E+00  0.00000000E+00
  0.00000000E+00  0.00000000E+00  0.00000000E+00
  0.00000000E+00  0.00000000E+00  0.00000000E+00
  0.00000000E+00  0.00000000E+00  0.00000000E+00
  0.00000000E+00  0.00000000E+00  0.00000000E+00
  0.00000000E+00  0.00000000E+00  0.00000000E+00
  0.00000000E+00  0.00000000E+00  0.00000000E+00
  0.00000000E+00  0.00000000E+00  0.00000000E+00
  0.00000000E+00  0.00000000E+00  0.00000000E+00
  0.00000000E+00  0.00000000E+00  0.00000000E+00
  0.00000000E+00  0.00000000E+00  0.00000000E+00
  0.00000000E+00  0.00000000E+00  0.00000000E+00
  0.00000000E+00  0.00000000E+00  0.00000000E+00
  0.00000000E+00  0.00000000E+00  0.00000000E+00
  0.00000000E+00  0.00000000E+00  0.00000000E+00
  0.00000000E+00  0.00000000E+00  0.00000000E+00
  0.00000000E+00  0.00000000E+00  0.00000000E+00
  0.00000000E+00  0.00000000E+00  0.00000000E+00
  0.00000000E+00  0.00000000E+00  0.00000000E+00
  0.00000000E+00  0.00000000E+00  0.00000000E+00
  0.00000000E+00  0.00000000E+00  0.00000000E+00
  0.00000000E+00  0.00000000E+00  0.00000000E+00
  0.00000000E+00  0.00000000E+00  0.00000000E+00
  0.00000000E+00  0.00000000E+00  0.00000000E+00
  0.00000000E+00  0.00000000E+00  0.00000000E+00
  0.00000000E+00  0.00000000E+00  0.00000000E+00
  0.00000000E+00  0.00000000E+00  0.00000000E+00
  0.00000000E+00  0.00000000E+00  0.00000000E+00
  0.00000000E+00  0.00000000E+00  0.00000000E+00
  0.00000000E+00  0.00000000E+00  0.00000000E+00
  0.00000000E+00  0.00000000E+00  0.00000000E+00
  0.00000000E+00  0.00000000E+00  0.00000000E+00
  0.00000000E+00  0.00000000E+00  0.00000000E+00
  0.00000000E+00  0.00000000E+00  0.00000000E+00
  0.00000000E+00  0.00000000E+00  0.00000000E+00
  0.00000000E+00  0.00000000E+00  0.00000000E+00
  0.00000000E+00  0.00000000E+00  0.00000000E+00
  0.00000000E+00  0.00000000E+00  0.00000000E+00
  0.00000000E+00  0.00000000E+00  0.00000000E+00
  0.00000000E+00  0.00000000E+00  0.00000000E+00
  0.00000000E+00  0.00000000E+00  0.00000000E+00
  0.00000000E+00  0.00000000E+00  0.00000000E+00
  0.00000000E+00  0.00000000E+00  0.00000000E+00
  0.00000000E+00  0.00000000E+00  0.00000000E+00
  0.00000000E+00  0.00000000E+00  0.00000000E+00
  0.00000000E+00  0.00000000E+00  0.00000000E+00
  0.00000000E+00  0.00000000E+00  0.00000000E+00
  0.00000000E+00  0.00000000E+00  0.00000000E+00
  0.00000000E+00  0.00000000E+00  0.00000000E+00
  0.00000000E+00  0.00000000E+00  0.00000000E+00
  0.00000000E+00  0.00000000E+00  0.00000000E+00
  0.00000000E+00  0.00000000E+00  0.00000000E+00
  0.00000000E+00  0.00000000E+00  0.00000000E+00
  0.00000000E+00  0.00000000E+00  0.00000000E+00
  0.00000000E+00  0.00000000E+00  0.00000000E+00
  0.00000000E+00  0.00000000E+00  0.00000000E+00
  0.00000000E+00  0.00000000E+00  0.00000000E+00
  0.00000000E+00  0.00000000E+00  0.00000000E+00
  0.00000000E+00  0.00000000E+00  0.00000000E+00
  0.00000000E+00  0.00000000E+00  0.00000000E+00
  0.00000000E+00  0.00000000E+00  0.00000000E+00
  0.00000000E+00  0.00000000E+00  0.00000000E+00
  0.00000000E+00  0.00000000E+00  0.00000000E+00
  0.00000000E+00  0.00000000E+00  0.00000000E+00
  0.00000000E+00  0.00000000E+00  0.00000000E+00
  0.00000000E+00  0.00000000E+00  0.00000000E+00
  0.00000000E+00  0.00000000E+00  0.00000000E+00
  0.00000000E+00  0.00000000E+00  0.00000000E+00
  0.00000000E+00  0.00000000E+00  0.00000000E+00
  0.00000000E+00  0.00000000E+00  0.00000000E+00
  0.00000000E+00  0.00000000E+00  0.00000000E+00
  0.00000000E+00  0.00000000E+00  0.00000000E+00
  0.00000000E+00  0.00000000E+00  0.00000000E+00
  0.00000000E+00  0.00000000E+00  0.00000000E+00
  0.00000000E+00  0.00000000E+00  0.00000000E+00
  0.00000000E+00  0.00000000E+00  0.00000000E+00
  0.00000000E+00  0.00000000E+00  0.00000000E+00
  0.00000000E+00  0.00000000E+00  0.00000000E+00
  0.00000000E+00  0.00000000E+00  0.00000000E+00
  0.00000000E+00  0.00000000E+00  0.00000000E+00
  0.00000000E+00  0.00000000E+00  0.00000000E+00
  0.00000000E+00  0.00000000E+00  0.00000000E+00
  0.00000000E+00  0.00000000E+00  0.00000000E+00
  0.00000000E+00  0.00000000E+00  0.00000000E+00
  0.00000000E+00  0.00000000E+00  0.00000000E+00
  0.00000000E+00  0.00000000E+00  0.00000000E+00
  0.00000000E+00  0.00000000E+00  0.00000000E+00
  0.00000000E+00  0.00000000E+00  0.00000000E+00
  0.00000000E+00  0.00000000E+00  0.00000000E+00
  0.00000000E+00  0.00000000E+00  0.00000000E+00
  0.00000000E+00  0.00000000E+00  0.00000000E+00
  0.00000000E+00  0.00000000E+00  0.00000000E+00
  0.00000000E+00  0.00000000E+00  0.00000000E+00
  0.00000000E+00  0.00000000E+00  0.00000000E+00
  0.00000000E+00  0.00000000E+00  0.00000000E+00
  0.00000000E+00  0.00000000E+00  0.00000000E+00
  0.00000000E+00  0.00000000E+00  0.00000000E+00
  0.00000000E+00  0.00000000E+00  0.00000000E+00
  0.00000000E+00  0.00000000E+00  0.00000000E+00
  0.00000000E+00  0.00000000E+00  0.00000000E+00
  0.00000000E+00  0.00000000E+00  0.00000000E+00
  0.00000000E+00  0.00000000E+00  0.00000000E+00
  0.00000000E+00  0.00000000E+00  0.00000000E+00
  0.00000000E+00  0.00000000E+00  0.00000000E+00
  0.00000000E+00  0.00000000E+00  0.00000000E+00
  0.00000000E+00  0.00000000E+00  0.00000000E+00
  0.00000000E+00  0.00000000E+00  0.00000000E+00
  0.00000000E+00  0.00000000E+00  0.00000000E+00
  0.00000000E+00  0.00000000E+00  0.00000000E+00
  0.00000000E+00  0.00000000E+00  0.00000000E+00
  0.00000000E+00  0.00000000E+00  0.00000000E+00
  0.00000000E+00  0.00000000E+00  0.00000000E+00
  0.00000000E+00  0.00000000E+00  0.00000000E+00
  0.00000000E+00  0.00000000E+00  0.00000000E+00
  0.00000000E+00  0.00000000E+00  0.00000000E+00
  0.00000000E+00  0.00000000E+00  0.00000000E+00
  0.00000000E+00  0.00000000E+00  0.00000000E+00
  0.00000000E+00  0.00000000E+00  0.00000000E+00
  0.00000000E+00  0.00000000E+00  0.00000000E+00
  0.00000000E+00  0.00000000E+00  0.00000000E+00
  0.00000000E+00  0.00000000E+00  0.00000000E+00
  0.00000000E+00  0.00000000E+00  0.00000000E+00
  0.00000000E+00  0.00000000E+00  0.00000000E+00
  0.00000000E+00  0.00000000E+00  0.00000000E+00
  0.00000000E+00  0.00000000E+00  0.00000000E+00
  0.00000000E+00  0.00000000E+00  0.00000000E+00
  0.00000000E+00  0.00000000E+00  0.00000000E+00
  0.00000000E+00  0.00000000E+00  0.00000000E+00
  0.00000000E+00  0.00000000E+00  0.00000000E+00
  0.00000000E+00  0.00000000E+00  0.00000000E+00
  0.00000000E+00  0.00000000E+00  0.00000000E+00
  0.00000000E+00  0.00000000E+00  0.00000000E+00
  0.00000000E+00  0.00000000E+00  0.00000000E+00
  0.00000000E+00  0.00000000E+00  0.00000000E+00
  0.00000000E+00  0.00000000E+00  0.00000000E+00
  0.00000000E+00  0.00000000E+00  0.00000000E+00
  0.00000000E+00  0.00000000E+00  0.00000000E+00
  0.00000000E+00  0.00000000E+00  0.00000000E+00
  0.00000000E+00  0.00000000E+00  0.00000000E+00
  0.00000000E+00  0.00000000E+00  0.00000000E+00
  0.00000000E+00  0.00000000E+00  0.00000000E+00
  0.00000000E+00  0.00000000E+00  0.00000000E+00
  0.00000000E+00  0.00000000E+00  0.00000000E+00
  0.00000000E+00  0.00000000E+00  0.00000000E+00
  0.00000000E+00  0.00000000E+00  0.00000000E+00
  0.00000000E+00  0.00000000E+00  0.00000000E+00
  0.00000000E+00  0.00000000E+00  0.00000000E+00
  0.00000000E+00  0.00000000E+00  0.00000000E+00
  0.00000000E+00  0.00000000E+00  0.00000000E+00
  0.00000000E+00  0.00000000E+00  0.00000000E+00
  0.00000000E+00  0.00000000E+00  0.00000000E+00
  0.00000000E+00  0.00000000E+00  0.00000000E+00
  0.00000000E+00  0.00000000E+00  0.00000000E+00
  0.00000000E+00  0.00000000E+00  0.00000000E+00
  0.00000000E+00  0.00000000E+00  0.00000000E+00
  0.00000000E+00  0.00000000E+00  0.00000000E+00
  0.00000000E+00  0.00000000E+00  0.00000000E+00
  0.00000000E+00  0.00000000E+00  0.00000000E+00
  0.00000000E+00  0.00000000E+00  0.00000000E+00
  0.00000000E+00  0.00000000E+00  0.00000000E+00
  0.00000000E+00  0.00000000E+00  0.00000000E+00
  0.00000000E+00  0.00000000E+00  0.00000000E+00
  0.00000000E+00  0.00000000E+00  0.00000000E+00
  0.00000000E+00  0.00000000E+00  0.00000000E+00
  0.00000000E+00  0.00000000E+00  0.00000000E+00
  0.00000000E+00  0.00000000E+00  0.00000000E+00
  0.00000000E+00  0.00000000E+00  0.00000000E+00
  0.00000000E+00  0.00000000E+00  0.00000000E+00
  0.00000000E+00  0.00000000E+00  0.00000000E+00
  0.00000000E+00  0.00000000E+00  0.00000000E+00
  0.00000000E+00  0.00000000E+00  0.00000000E+00
  0.00000000E+00  0.00000000E+00  0.00000000E+00
  0.00000000E+00  0.00000000E+00  0.00000000E+00
  0.00000000E+00  0.00000000E+00  0.00000000E+00
  0.00000000E+00  0.00000000E+00  0.00000000E+00
  0.00000000E+00  0.00000000E+00  0.00000000E+00
  0.00000000E+00  0.00000000E+00  0.00000000E+00
  0.00000000E+00  0.00000000E+00  0.00000000E+00
  0.00000000E+00  0.00000000E+00  0.00000000E+00
  0.00000000E+00  0.00000000E+00  0.00000000E+00
  0.00000000E+00  0.00000000E+00  0.00000000E+00
  0.00000000E+00  0.00000000E+00  0.00000000E+00
  0.00000000E+00  0.00000000E+00  0.00000000E+00
