generated by phonopy                    
    1.000000000000000     
    12.9032000000000000    0.0000000000000000    0.0000000000000000
     0.0000000000000000   12.9032000000000000    0.0000000000000000
     0.0000000000000000    0.0000000000000000   11.9553000000000011
   Tl   Cu   Se
    12    60    36
Direct
  0.1065880381056350  0.0852355639927678 -0.0260813602432964
  0.1068777451097506  0.0718927840709148  0.3196647746041946
  0.1282218396322913  0.0786166655280582  0.6648698317013761
  0.4088943526318716  0.5917473465980453  0.1732480078047568
  0.3876397628192276  0.5780326530367351  0.4852736233563659
  0.3740692937046248  0.5932598545657979  0.8179705436675065
  0.6062188572560691  0.3696772086882907  0.1402827187929474
  0.5879657010708769  0.3903223809639428  0.5122423857042756
  0.5856756550007292  0.3710339243463169  0.8228093539835309
  0.8879111359142325  0.8573077429142605 -0.0292615512364069
  0.8951381752404620  0.8750953385158419  0.3104381395377572
  0.8712610087290689  0.8687358946074932  0.6340434249598689
  0.8344529867146796  0.1337470728949769 -0.0309426364508405
  0.8188390317107405  0.1758088855253795  0.3076034781033454
  0.7867132560423905  0.1354138296524832  0.6413377731426533
  0.2982020766419712  0.2920795476377026  0.1408418886337019
  0.3316814555848893  0.2957844195184397  0.4894412430783758
  0.3161860956832429  0.3033582742050086  0.8374488562331960
  0.7005689795909761  0.6596480106682004  0.1380631131335978
  0.6374069539241692  0.6462426891208816  0.4881243924556925
  0.7025159791570000  0.6327501676113703  0.8240796024681872
  0.1963762623870422  0.8164374469302671 -0.0258249939365063
  0.1574170546675814  0.7768738571668266  0.3081600122832008
  0.1582928278038360  0.7733737707840341  0.6386508592368737
  0.1896268820759404  0.3674086521855967  0.9848276221322513
  0.2138115839461163  0.4056151742360264  0.3595208086283488
  0.1901753573549586  0.3930448473480943  0.6390194664690875
  0.0897907717243434  0.6652361041146945  0.1327938411601921
  0.0483904997070930  0.6919253410271345  0.4850736236442990
  0.0801656816987157  0.6738478815535716  0.8614390486551549
  0.9222060919974883  0.2757051020272882  0.1686758389856593
  0.8801001726767612  0.2669247955368599  0.4975289782316054
  0.9245022681253734  0.2748265007076840  0.8110264049228372
  0.7719120190100841  0.5381568218444767 -0.0151072654425807
  0.7808730624108162  0.5436041190191488  0.3111234989818854
  0.7644996175946598  0.5600536249069485  0.6437106044416698
  0.7184207086426212  0.0437336342820113  0.1300060525830548
  0.7088924814024066  0.0662960887034728  0.4489140147940402
  0.7246805839758271  0.0200925270379570  0.8296386067790894
  0.2932116684730830  0.8959346890524770  0.1460267449919165
  0.2650689360326411  0.8986558568051208  0.5332648469353385
  0.2897641933499481  0.8814341528485632  0.7959103881588421
  0.4193263037122771  0.1792654480623553  1.0092117040163571
  0.4160627828038142  0.1673319246391575  0.3418601357478759
  0.4015604516434380  0.1846497949402847  0.6311301324037770
  0.5922748020893612  0.7623174806035082 -0.0191453792864953
  0.5554206656028805  0.7597929857856521  0.3117500473338947
  0.5626850169123975  0.7794706119041039  0.6469846111061633
 -0.0046638809512083  0.3512676074277895 -0.0046246105598947
  0.0297642704432587  0.3709827413937672  0.3378535712789164
  0.9837030752423597  0.3735853135442644  0.6345063970773093
  0.1028311862209282  0.4585845188899046  0.1540400656250272
  0.0796989859550919  0.4731061124058464  0.4957816839510970
  0.0517290672171965  0.4706107440387197  0.8387361743587655
  0.8933342230865818  0.4621687825430643  0.1608286313925444
  0.8858217073311455  0.4724526742118058  0.4819572635198998
  0.8627819779141663  0.4653388423738609  0.8143997389940952
 -0.0292956340739602  0.5688398006104572 -0.0004358981179893
  0.9876040452046094  0.5661741101022898  0.3113928862442455
  0.9640722970819297  0.5806697628108921  0.6383029713522448
  0.5232380441255389  0.0801920120910828  0.1457367444197286
  0.4979637482241441  0.0772908191591180  0.4949887763011681
  0.5312491240509633  0.0645856486094326  0.8202966403972337
  0.4770362353571297  0.8760621598260520  0.1631789174328727
  0.4675026639915272  0.8732909941794945  0.4852613362576548
  0.4897924895925337  0.8563618591178238  0.8174276053706935
  0.3900515972586105  0.9793283459544146  0.9843378884482374
  0.3760040719863977  0.9904985523055782  0.3199497317734680
  0.4310647249334654  0.9826697317574610  0.6704197621947493
  0.6008151800421090  0.9574374906794295 -0.0025345839780239
  0.5745027174440263  0.9736158314977411  0.3255105607964711
  0.6186151692435067 -0.0248279099188302  0.6494544310890344
  0.3942529587387972  0.3788966444249793 -0.0063529519659496
  0.3867505011368493  0.3515389384258793  0.3156827373941104
  0.3837694340005666  0.3796568314470987  0.6666104890001414
  0.1119843766638922  0.8630061421113699  0.1440114503868254
  0.0904533905012968  0.8662447860545665  0.4663028009940529
  0.0965079159189335  0.8566851003974406  0.8176469996942001
  0.8962685459930292  0.0730947098034305  0.1378567336784490
  0.8917665112838669  0.0904063098423371  0.4672804188366577
  0.8919607946372377  0.0835934409479934  0.7966282992116268
  0.5873850753293706  0.5778537113503222  1.0029373997543056
  0.6161273129711533  0.5870604862541693  0.3093638654430355
  0.5852160771905555  0.5991098462352495  0.6760424075782310
  0.6226698073284787  0.1468859590712209  0.9751513691781817
  0.6061017633827727  0.1594959937105886  0.3120530380016153
  0.5958222631835209  0.1647017336056295  0.6534112612878441
  0.3279941095402231  0.0861510432261257  0.1433268023371345
  0.3031690512506474  0.0845664541517833  0.4852446376588906
  0.3375328142727242  0.0992951546995560  0.8199441595873198
  0.6627831566001456  0.8628751874145509  0.1599783722809023
  0.6602395277093939  0.8666245815474642  0.4837714349123645
  0.6790193375787655  0.8372496640544957  0.8019195313092810
  0.3920720793271709  0.7944507301463541  0.9662375787764791
  0.3747418585902472  0.7980463981441552  0.3119346115298321
  0.3716514059940741  0.7838494538470183  0.6481287289232918
  0.1073609330999910  0.2713777659792748  0.1592119133220799
  0.0982414070818718  0.2761307506420763  0.4970225114906530
  0.1081273186230213  0.2861967607336293  0.8154878479972950
  0.8908623280194129  0.6507724946392870  0.1567138042188008
  0.8553457832242802  0.6608534075891979  0.4744510110772147
  0.8874296391174946  0.6552338463208339  0.8161038223885266
  0.1812263147290086  0.5588901812209027  0.9918711226728375
  0.1836859147791561  0.5885900123304305  0.3296488061677665
  0.1478645397673795  0.5899580061358858  0.6564237417276259
  0.8098535509950230  0.3564728306674649 -0.0222037307281148
  0.8234409661067665  0.3618837765134572  0.3155566444420415
  0.7998459059249237  0.3702740899311145  0.6429699033496205
 
 -0.38882194E-03  0.10873562E-02  0.27858800E-03
  0.16212625E-02  0.44691540E-03 -0.30837066E-03
  0.12830725E-03  0.20394337E-03 -0.86106930E-03
 -0.10358931E-03  0.26442912E-03 -0.63186932E-03
  0.15266250E-02 -0.68805904E-03  0.13905839E-02
  0.92231274E-03  0.31101245E-04  0.19182999E-02
 -0.80614169E-03 -0.76484023E-03  0.14527728E-02
  0.32059504E-04 -0.99218047E-03  0.16535282E-02
  0.10272220E-04  0.12576929E-02  0.49312317E-03
  0.21866825E-02 -0.20053657E-02  0.63016662E-03
  0.12902448E-02 -0.16819158E-02  0.62458276E-03
 -0.53140347E-03  0.14817634E-02 -0.20903925E-03
 -0.91392617E-03  0.48624389E-02  0.23785200E-02
  0.83932158E-03  0.27636808E-02  0.19386369E-02
 -0.19057382E-02  0.34713573E-02 -0.12559318E-02
  0.27542333E-02 -0.23014916E-02 -0.67615221E-03
 -0.15579799E-02  0.21144749E-02  0.68045581E-03
 -0.31907689E-03 -0.28980598E-02 -0.56482406E-03
  0.42159552E-02  0.15006926E-02  0.67292812E-03
  0.23209168E-02  0.46300816E-03 -0.16100180E-02
 -0.25741309E-02  0.23363566E-03 -0.68113672E-03
 -0.98572344E-03  0.37003251E-04  0.11096623E-02
 -0.28757650E-02  0.23642395E-02 -0.30663236E-02
 -0.17956093E-03  0.18510539E-04 -0.82195211E-03
  0.50668650E-02 -0.50151073E-02  0.17630081E-02
  0.32104728E-02 -0.22140146E-02  0.42142347E-03
 -0.41520531E-02 -0.14973940E-02 -0.83461702E-03
  0.15548844E-02 -0.83351130E-03 -0.17977715E-03
 -0.24392596E-03  0.76873269E-03  0.73015871E-03
 -0.19872654E-02  0.32616593E-02  0.42795610E-03
  0.50455969E-02  0.17811543E-02 -0.16320137E-02
  0.68688606E-03 -0.15201278E-02  0.94763306E-03
 -0.92522057E-03  0.83122763E-03  0.10469959E-02
  0.30655993E-03  0.18938578E-04 -0.16970400E-02
  0.15191807E-02  0.70809473E-05  0.27361173E-02
  0.10529011E-02 -0.12865896E-02  0.95088576E-03
 -0.18038912E-02 -0.10580163E-02  0.48290953E-03
 -0.77792539E-03 -0.31018890E-02  0.23290802E-02
  0.15961279E-02 -0.94755256E-03  0.39392930E-03
 -0.10173572E-02  0.28006372E-02  0.17497476E-02
  0.58133811E-03  0.49835218E-02 -0.20184569E-02
 -0.21017550E-02  0.35825398E-02  0.15258293E-02
 -0.10873966E-02 -0.88042970E-03 -0.95341170E-03
 -0.36581261E-02  0.16371302E-02  0.15038423E-02
 -0.16051543E-02 -0.23226837E-02  0.64731389E-03
  0.43372571E-02 -0.20103943E-02  0.47296933E-03
 -0.13371822E-02  0.86195528E-03  0.21898670E-02
 -0.26757445E-02 -0.65391456E-04 -0.32344473E-03
 -0.17031142E-02 -0.22693967E-02  0.25599990E-03
 -0.22472058E-02  0.18660738E-02 -0.64454726E-03
 -0.39880490E-02  0.15202768E-02 -0.58554821E-03
 -0.17013154E-02 -0.12549776E-02  0.65807808E-03
  0.20647308E-02 -0.12188746E-02  0.27418634E-02
 -0.43133751E-02  0.20019873E-02 -0.17553172E-02
  0.26368328E-03 -0.32312306E-03  0.21813960E-02
  0.26208035E-03 -0.23144000E-02  0.28029105E-02
  0.27034336E-02 -0.11669419E-02  0.51190360E-03
  0.96041685E-03  0.15072103E-02 -0.34077706E-02
 -0.18035445E-02 -0.66974169E-03  0.85782018E-05
  0.30675155E-03  0.73576597E-03  0.24263902E-03
 -0.11343174E-02 -0.64948406E-03  0.72767921E-03
  0.31031834E-02  0.96312408E-03 -0.12350843E-03
  0.53844044E-03  0.40515015E-03 -0.15341614E-02
 -0.20622492E-03  0.37270474E-03  0.18778950E-02
  0.49262294E-03  0.20558507E-02 -0.33104392E-02
  0.13558478E-02  0.98770635E-03 -0.16002548E-02
  0.25133029E-02  0.29399014E-02  0.12556374E-02
 -0.11879909E-03  0.36496150E-02  0.44347316E-02
 -0.31724475E-02  0.32409162E-02 -0.26568883E-02
  0.83100759E-03 -0.12168331E-02 -0.17907371E-02
  0.51123847E-02 -0.11665598E-02  0.99472621E-03
  0.15655393E-02 -0.26952186E-02 -0.56612630E-03
  0.10078515E-02 -0.14734490E-02  0.18111888E-03
  0.24606227E-03  0.24969780E-02 -0.60567661E-03
  0.84967612E-03 -0.56698776E-03  0.10550816E-02
 -0.33539063E-02  0.22195767E-02  0.15406330E-02
  0.19784887E-02  0.14216849E-03 -0.22960027E-03
 -0.21474289E-03  0.71222204E-03 -0.11464250E-02
  0.39453517E-02  0.44365472E-02 -0.10488674E-02
  0.89629860E-03 -0.82463040E-03 -0.40226093E-03
 -0.25676246E-02  0.32420663E-02 -0.41562211E-02
 -0.53617812E-03 -0.35088138E-02  0.16107007E-02
 -0.24997343E-03 -0.80466309E-04 -0.98309577E-03
  0.57184842E-03  0.72033028E-03  0.20821597E-02
 -0.24742045E-02  0.82209724E-03 -0.84787742E-03
  0.96476379E-03 -0.19620044E-02 -0.18311911E-02
  0.14890005E-02 -0.50572752E-02  0.20240159E-02
  0.61218783E-03 -0.45678992E-02  0.13611876E-02
 -0.11109442E-02 -0.83884122E-03  0.14676273E-02
 -0.33839222E-02 -0.79716621E-03 -0.26558504E-02
  0.20871139E-02  0.51590507E-03  0.30172902E-02
  0.63400508E-03 -0.20486988E-03  0.10026531E-02
  0.15580363E-02 -0.17181938E-03  0.12826663E-02
  0.20508634E-02 -0.17024017E-02 -0.32887404E-02
 -0.65191646E-03 -0.94223285E-03 -0.42364575E-02
 -0.30914025E-03 -0.82918693E-03 -0.72625034E-03
 -0.80522464E-03  0.40124394E-03 -0.84759166E-03
 -0.25685912E-03  0.23919818E-02 -0.46810231E-03
  0.22635577E-02 -0.88716933E-03 -0.16413110E-02
  0.23077446E-02  0.18594967E-02  0.89391377E-03
 -0.15807569E-02  0.41217094E-02 -0.68355010E-03
 -0.10971450E-02 -0.34400659E-03 -0.18368966E-02
  0.36963365E-02  0.62879814E-02  0.19625268E-02
  0.16530892E-02 -0.14823190E-02  0.11554639E-02
 -0.21542242E-03  0.16318507E-02 -0.91773222E-03
 -0.35647750E-02  0.10805414E-02  0.26247576E-02
 -0.87325861E-03  0.34596782E-02  0.11365945E-02
 -0.25970492E-03  0.20179893E-03  0.48832543E-03
 
            1
    1.000000000000000     
  0.10000000E+01  0.00000000E+00  0.00000000E+00  0.00000000E+00
  0.10655790E+00  0.85319834E-01  0.97394194E+00
  0.10700339E+00  0.71927420E-01  0.31963898E+00
  0.12823178E+00  0.78632471E-01  0.66479781E+00
  0.40888632E+00  0.59176784E+00  0.17319516E+00
  0.38775808E+00  0.57797933E+00  0.48538994E+00
  0.37414077E+00  0.59326226E+00  0.81813100E+00
  0.60615638E+00  0.36961793E+00  0.14040424E+00
  0.58796819E+00  0.39024549E+00  0.51238069E+00
  0.58567645E+00  0.37113140E+00  0.82285060E+00
  0.88808060E+00  0.85715233E+00  0.97079116E+00
  0.89523817E+00  0.87496499E+00  0.31049038E+00
  0.87121982E+00  0.86885073E+00  0.63402594E+00
  0.83438216E+00  0.13412391E+00  0.96925631E+00
  0.81890408E+00  0.17602307E+00  0.30776564E+00
  0.78656556E+00  0.13568286E+00  0.64123272E+00
  0.29841553E+00  0.29190118E+00  0.14078533E+00
  0.33156071E+00  0.29594829E+00  0.48949816E+00
  0.31616137E+00  0.30313367E+00  0.83740161E+00
  0.70089572E+00  0.65976431E+00  0.13811940E+00
  0.63758683E+00  0.64627857E+00  0.48798972E+00
  0.70231648E+00  0.63276827E+00  0.82402263E+00
  0.19629987E+00  0.81644031E+00  0.97426782E+00
  0.15719418E+00  0.77705709E+00  0.30790353E+00
  0.15827891E+00  0.77337521E+00  0.63858211E+00
  0.19001956E+00  0.36701998E+00  0.98497509E+00
  0.21406040E+00  0.40544359E+00  0.35955606E+00
  0.18985357E+00  0.39292880E+00  0.63894966E+00
  0.89911276E-01  0.66517151E+00  0.13277880E+00
  0.48371595E-01  0.69198492E+00  0.48513470E+00
  0.80011668E-01  0.67410066E+00  0.86147485E+00
  0.92259713E+00  0.27584314E+00  0.16853933E+00
  0.88015341E+00  0.26680699E+00  0.49760824E+00
  0.92443056E+00  0.27489092E+00  0.81111398E+00
  0.77193578E+00  0.53815829E+00  0.98475079E+00
  0.78099080E+00  0.54360467E+00  0.31135236E+00
  0.76458122E+00  0.55995391E+00  0.64379014E+00
  0.71828091E+00  0.43651638E-01  0.13004645E+00
  0.70883219E+00  0.66055692E-01  0.44910883E+00
  0.72480428E+00  0.20019092E-01  0.82967156E+00
  0.29313282E+00  0.89615174E+00  0.14617310E+00
  0.26511399E+00  0.89904208E+00  0.53309601E+00
  0.28960131E+00  0.88171180E+00  0.79603802E+00
  0.41924203E+00  0.17919721E+00  0.91319560E-02
  0.41577928E+00  0.16745880E+00  0.34198592E+00
  0.40143605E+00  0.18446979E+00  0.63118428E+00
  0.59261094E+00  0.76216167E+00  0.98089418E+00
  0.55531703E+00  0.75985979E+00  0.31193322E+00
  0.56247765E+00  0.77946554E+00  0.64695756E+00
  0.99520413E+00  0.35109173E+00  0.99539680E+00
  0.29590112E-01  0.37112736E+00  0.33779966E+00
  0.98339400E+00  0.37370314E+00  0.63445742E+00
  0.10269933E+00  0.45848726E+00  0.15409511E+00
  0.79859003E-01  0.47301165E+00  0.49601103E+00
  0.51394780E-01  0.47076590E+00  0.83858935E+00
  0.89335466E+00  0.46214374E+00  0.16101109E+00
  0.88584202E+00  0.47227331E+00  0.48219171E+00
  0.86299149E+00  0.46524840E+00  0.81444256E+00
  0.97077880E+00  0.56895661E+00  0.99927906E+00
  0.98746427E+00  0.56612221E+00  0.31139360E+00
  0.96409607E+00  0.58072678E+00  0.63832327E+00
  0.52315013E+00  0.80141677E-01  0.14579761E+00
  0.49820425E+00  0.77365461E-01  0.49497845E+00
  0.53129085E+00  0.64617048E-01  0.82016832E+00
  0.47702025E+00  0.87609104E+00  0.16333599E+00
  0.46754084E+00  0.87345032E+00  0.48498443E+00
  0.48989757E+00  0.85643841E+00  0.81729375E+00
  0.39024638E+00  0.97955619E+00  0.98444292E+00
  0.37599487E+00  0.99078140E+00  0.32032067E+00
  0.43081886E+00  0.98292090E+00  0.67019753E+00
  0.60087958E+00  0.95734319E+00  0.99731563E+00
  0.57489893E+00  0.97352542E+00  0.32559376E+00
  0.61873650E+00  0.97496321E+00  0.64940708E+00
  0.39433107E+00  0.37878245E+00  0.99366220E+00
  0.38676957E+00  0.35173245E+00  0.31563208E+00
  0.38383528E+00  0.37961289E+00  0.66669874E+00
  0.11172445E+00  0.86317816E+00  0.14414032E+00
  0.90606724E-01  0.86625580E+00  0.46628360E+00
  0.96491273E-01  0.85674030E+00  0.81755111E+00
  0.89657431E+00  0.73438543E-01  0.13776900E+00
  0.89183597E+00  0.90342401E-01  0.46724677E+00
  0.89176180E+00  0.83844702E-01  0.79628065E+00
  0.58734352E+00  0.57758178E+00  0.30721267E-02
  0.61610794E+00  0.58705425E+00  0.30928163E+00
  0.58526040E+00  0.59916567E+00  0.67621657E+00
  0.62247806E+00  0.14694967E+00  0.97508045E+00
  0.60617653E+00  0.15934394E+00  0.31189987E+00
  0.59593766E+00  0.16430979E+00  0.65358056E+00
  0.32804155E+00  0.85797030E-01  0.14344066E+00
  0.30308295E+00  0.84501444E-01  0.48536740E+00
  0.33727056E+00  0.99233374E-01  0.81972201E+00
  0.66294491E+00  0.86291517E+00  0.16023075E+00
  0.66028866E+00  0.86660870E+00  0.48385530E+00
  0.67914009E+00  0.83723635E+00  0.80202682E+00
  0.39223102E+00  0.79431879E+00  0.96596249E+00
  0.37469133E+00  0.79797337E+00  0.31158025E+00
  0.37162745E+00  0.78378519E+00  0.64806798E+00
  0.10729853E+00  0.27140886E+00  0.15914102E+00
  0.98221500E-01  0.27631613E+00  0.49698336E+00
  0.10830274E+00  0.28612800E+00  0.81535056E+00
  0.89104118E+00  0.65091661E+00  0.15678858E+00
  0.85522327E+00  0.66117284E+00  0.47439384E+00
  0.88734461E+00  0.65520719E+00  0.81595018E+00
  0.18151278E+00  0.55937750E+00  0.99203528E+00
  0.18381403E+00  0.58847513E+00  0.32974545E+00
  0.14784784E+00  0.59008447E+00  0.65634698E+00
  0.80957728E+00  0.35655657E+00  0.97801582E+00
  0.82337329E+00  0.36215190E+00  0.31565171E+00
  0.79982578E+00  0.37028973E+00  0.64301075E+00
  0.00000000E+00  0.00000000E+00  0.00000000E+00
  0.00000000E+00  0.00000000E+00  0.00000000E+00
  0.00000000E+00  0.00000000E+00  0.00000000E+00
  0.00000000E+00  0.00000000E+00  0.00000000E+00
  0.00000000E+00  0.00000000E+00  0.00000000E+00
  0.00000000E+00  0.00000000E+00  0.00000000E+00
  0.00000000E+00  0.00000000E+00  0.00000000E+00
  0.00000000E+00  0.00000000E+00  0.00000000E+00
  0.00000000E+00  0.00000000E+00  0.00000000E+00
  0.00000000E+00  0.00000000E+00  0.00000000E+00
  0.00000000E+00  0.00000000E+00  0.00000000E+00
  0.00000000E+00  0.00000000E+00  0.00000000E+00
  0.00000000E+00  0.00000000E+00  0.00000000E+00
  0.00000000E+00  0.00000000E+00  0.00000000E+00
  0.00000000E+00  0.00000000E+00  0.00000000E+00
  0.00000000E+00  0.00000000E+00  0.00000000E+00
  0.00000000E+00  0.00000000E+00  0.00000000E+00
  0.00000000E+00  0.00000000E+00  0.00000000E+00
  0.00000000E+00  0.00000000E+00  0.00000000E+00
  0.00000000E+00  0.00000000E+00  0.00000000E+00
  0.00000000E+00  0.00000000E+00  0.00000000E+00
  0.00000000E+00  0.00000000E+00  0.00000000E+00
  0.00000000E+00  0.00000000E+00  0.00000000E+00
  0.00000000E+00  0.00000000E+00  0.00000000E+00
  0.00000000E+00  0.00000000E+00  0.00000000E+00
  0.00000000E+00  0.00000000E+00  0.00000000E+00
  0.00000000E+00  0.00000000E+00  0.00000000E+00
  0.00000000E+00  0.00000000E+00  0.00000000E+00
  0.00000000E+00  0.00000000E+00  0.00000000E+00
  0.00000000E+00  0.00000000E+00  0.00000000E+00
  0.00000000E+00  0.00000000E+00  0.00000000E+00
  0.00000000E+00  0.00000000E+00  0.00000000E+00
  0.00000000E+00  0.00000000E+00  0.00000000E+00
  0.00000000E+00  0.00000000E+00  0.00000000E+00
  0.00000000E+00  0.00000000E+00  0.00000000E+00
  0.00000000E+00  0.00000000E+00  0.00000000E+00
  0.00000000E+00  0.00000000E+00  0.00000000E+00
  0.00000000E+00  0.00000000E+00  0.00000000E+00
  0.00000000E+00  0.00000000E+00  0.00000000E+00
  0.00000000E+00  0.00000000E+00  0.00000000E+00
  0.00000000E+00  0.00000000E+00  0.00000000E+00
  0.00000000E+00  0.00000000E+00  0.00000000E+00
  0.00000000E+00  0.00000000E+00  0.00000000E+00
  0.00000000E+00  0.00000000E+00  0.00000000E+00
  0.00000000E+00  0.00000000E+00  0.00000000E+00
  0.00000000E+00  0.00000000E+00  0.00000000E+00
  0.00000000E+00  0.00000000E+00  0.00000000E+00
  0.00000000E+00  0.00000000E+00  0.00000000E+00
  0.00000000E+00  0.00000000E+00  0.00000000E+00
  0.00000000E+00  0.00000000E+00  0.00000000E+00
  0.00000000E+00  0.00000000E+00  0.00000000E+00
  0.00000000E+00  0.00000000E+00  0.00000000E+00
  0.00000000E+00  0.00000000E+00  0.00000000E+00
  0.00000000E+00  0.00000000E+00  0.00000000E+00
  0.00000000E+00  0.00000000E+00  0.00000000E+00
  0.00000000E+00  0.00000000E+00  0.00000000E+00
  0.00000000E+00  0.00000000E+00  0.00000000E+00
  0.00000000E+00  0.00000000E+00  0.00000000E+00
  0.00000000E+00  0.00000000E+00  0.00000000E+00
  0.00000000E+00  0.00000000E+00  0.00000000E+00
  0.00000000E+00  0.00000000E+00  0.00000000E+00
  0.00000000E+00  0.00000000E+00  0.00000000E+00
  0.00000000E+00  0.00000000E+00  0.00000000E+00
  0.00000000E+00  0.00000000E+00  0.00000000E+00
  0.00000000E+00  0.00000000E+00  0.00000000E+00
  0.00000000E+00  0.00000000E+00  0.00000000E+00
  0.00000000E+00  0.00000000E+00  0.00000000E+00
  0.00000000E+00  0.00000000E+00  0.00000000E+00
  0.00000000E+00  0.00000000E+00  0.00000000E+00
  0.00000000E+00  0.00000000E+00  0.00000000E+00
  0.00000000E+00  0.00000000E+00  0.00000000E+00
  0.00000000E+00  0.00000000E+00  0.00000000E+00
  0.00000000E+00  0.00000000E+00  0.00000000E+00
  0.00000000E+00  0.00000000E+00  0.00000000E+00
  0.00000000E+00  0.00000000E+00  0.00000000E+00
  0.00000000E+00  0.00000000E+00  0.00000000E+00
  0.00000000E+00  0.00000000E+00  0.00000000E+00
  0.00000000E+00  0.00000000E+00  0.00000000E+00
  0.00000000E+00  0.00000000E+00  0.00000000E+00
  0.00000000E+00  0.00000000E+00  0.00000000E+00
  0.00000000E+00  0.00000000E+00  0.00000000E+00
  0.00000000E+00  0.00000000E+00  0.00000000E+00
  0.00000000E+00  0.00000000E+00  0.00000000E+00
  0.00000000E+00  0.00000000E+00  0.00000000E+00
  0.00000000E+00  0.00000000E+00  0.00000000E+00
  0.00000000E+00  0.00000000E+00  0.00000000E+00
  0.00000000E+00  0.00000000E+00  0.00000000E+00
  0.00000000E+00  0.00000000E+00  0.00000000E+00
  0.00000000E+00  0.00000000E+00  0.00000000E+00
  0.00000000E+00  0.00000000E+00  0.00000000E+00
  0.00000000E+00  0.00000000E+00  0.00000000E+00
  0.00000000E+00  0.00000000E+00  0.00000000E+00
  0.00000000E+00  0.00000000E+00  0.00000000E+00
  0.00000000E+00  0.00000000E+00  0.00000000E+00
  0.00000000E+00  0.00000000E+00  0.00000000E+00
  0.00000000E+00  0.00000000E+00  0.00000000E+00
  0.00000000E+00  0.00000000E+00  0.00000000E+00
  0.00000000E+00  0.00000000E+00  0.00000000E+00
  0.00000000E+00  0.00000000E+00  0.00000000E+00
  0.00000000E+00  0.00000000E+00  0.00000000E+00
  0.00000000E+00  0.00000000E+00  0.00000000E+00
  0.00000000E+00  0.00000000E+00  0.00000000E+00
  0.00000000E+00  0.00000000E+00  0.00000000E+00
  0.00000000E+00  0.00000000E+00  0.00000000E+00
  0.00000000E+00  0.00000000E+00  0.00000000E+00
  0.00000000E+00  0.00000000E+00  0.00000000E+00
  0.00000000E+00  0.00000000E+00  0.00000000E+00
  0.00000000E+00  0.00000000E+00  0.00000000E+00
  0.00000000E+00  0.00000000E+00  0.00000000E+00
  0.00000000E+00  0.00000000E+00  0.00000000E+00
  0.00000000E+00  0.00000000E+00  0.00000000E+00
  0.00000000E+00  0.00000000E+00  0.00000000E+00
  0.00000000E+00  0.00000000E+00  0.00000000E+00
  0.00000000E+00  0.00000000E+00  0.00000000E+00
  0.00000000E+00  0.00000000E+00  0.00000000E+00
  0.00000000E+00  0.00000000E+00  0.00000000E+00
  0.00000000E+00  0.00000000E+00  0.00000000E+00
  0.00000000E+00  0.00000000E+00  0.00000000E+00
  0.00000000E+00  0.00000000E+00  0.00000000E+00
  0.00000000E+00  0.00000000E+00  0.00000000E+00
  0.00000000E+00  0.00000000E+00  0.00000000E+00
  0.00000000E+00  0.00000000E+00  0.00000000E+00
  0.00000000E+00  0.00000000E+00  0.00000000E+00
  0.00000000E+00  0.00000000E+00  0.00000000E+00
  0.00000000E+00  0.00000000E+00  0.00000000E+00
  0.00000000E+00  0.00000000E+00  0.00000000E+00
  0.00000000E+00  0.00000000E+00  0.00000000E+00
  0.00000000E+00  0.00000000E+00  0.00000000E+00
  0.00000000E+00  0.00000000E+00  0.00000000E+00
  0.00000000E+00  0.00000000E+00  0.00000000E+00
  0.00000000E+00  0.00000000E+00  0.00000000E+00
  0.00000000E+00  0.00000000E+00  0.00000000E+00
  0.00000000E+00  0.00000000E+00  0.00000000E+00
  0.00000000E+00  0.00000000E+00  0.00000000E+00
  0.00000000E+00  0.00000000E+00  0.00000000E+00
  0.00000000E+00  0.00000000E+00  0.00000000E+00
  0.00000000E+00  0.00000000E+00  0.00000000E+00
  0.00000000E+00  0.00000000E+00  0.00000000E+00
  0.00000000E+00  0.00000000E+00  0.00000000E+00
  0.00000000E+00  0.00000000E+00  0.00000000E+00
  0.00000000E+00  0.00000000E+00  0.00000000E+00
  0.00000000E+00  0.00000000E+00  0.00000000E+00
  0.00000000E+00  0.00000000E+00  0.00000000E+00
  0.00000000E+00  0.00000000E+00  0.00000000E+00
  0.00000000E+00  0.00000000E+00  0.00000000E+00
  0.00000000E+00  0.00000000E+00  0.00000000E+00
  0.00000000E+00  0.00000000E+00  0.00000000E+00
  0.00000000E+00  0.00000000E+00  0.00000000E+00
  0.00000000E+00  0.00000000E+00  0.00000000E+00
  0.00000000E+00  0.00000000E+00  0.00000000E+00
  0.00000000E+00  0.00000000E+00  0.00000000E+00
  0.00000000E+00  0.00000000E+00  0.00000000E+00
  0.00000000E+00  0.00000000E+00  0.00000000E+00
  0.00000000E+00  0.00000000E+00  0.00000000E+00
  0.00000000E+00  0.00000000E+00  0.00000000E+00
  0.00000000E+00  0.00000000E+00  0.00000000E+00
  0.00000000E+00  0.00000000E+00  0.00000000E+00
  0.00000000E+00  0.00000000E+00  0.00000000E+00
  0.00000000E+00  0.00000000E+00  0.00000000E+00
  0.00000000E+00  0.00000000E+00  0.00000000E+00
  0.00000000E+00  0.00000000E+00  0.00000000E+00
  0.00000000E+00  0.00000000E+00  0.00000000E+00
  0.00000000E+00  0.00000000E+00  0.00000000E+00
  0.00000000E+00  0.00000000E+00  0.00000000E+00
  0.00000000E+00  0.00000000E+00  0.00000000E+00
  0.00000000E+00  0.00000000E+00  0.00000000E+00
  0.00000000E+00  0.00000000E+00  0.00000000E+00
  0.00000000E+00  0.00000000E+00  0.00000000E+00
  0.00000000E+00  0.00000000E+00  0.00000000E+00
  0.00000000E+00  0.00000000E+00  0.00000000E+00
  0.00000000E+00  0.00000000E+00  0.00000000E+00
  0.00000000E+00  0.00000000E+00  0.00000000E+00
  0.00000000E+00  0.00000000E+00  0.00000000E+00
  0.00000000E+00  0.00000000E+00  0.00000000E+00
  0.00000000E+00  0.00000000E+00  0.00000000E+00
  0.00000000E+00  0.00000000E+00  0.00000000E+00
  0.00000000E+00  0.00000000E+00  0.00000000E+00
  0.00000000E+00  0.00000000E+00  0.00000000E+00
  0.00000000E+00  0.00000000E+00  0.00000000E+00
  0.00000000E+00  0.00000000E+00  0.00000000E+00
  0.00000000E+00  0.00000000E+00  0.00000000E+00
  0.00000000E+00  0.00000000E+00  0.00000000E+00
  0.00000000E+00  0.00000000E+00  0.00000000E+00
  0.00000000E+00  0.00000000E+00  0.00000000E+00
  0.00000000E+00  0.00000000E+00  0.00000000E+00
  0.00000000E+00  0.00000000E+00  0.00000000E+00
  0.00000000E+00  0.00000000E+00  0.00000000E+00
  0.00000000E+00  0.00000000E+00  0.00000000E+00
  0.00000000E+00  0.00000000E+00  0.00000000E+00
  0.00000000E+00  0.00000000E+00  0.00000000E+00
  0.00000000E+00  0.00000000E+00  0.00000000E+00
  0.00000000E+00  0.00000000E+00  0.00000000E+00
  0.00000000E+00  0.00000000E+00  0.00000000E+00
  0.00000000E+00  0.00000000E+00  0.00000000E+00
  0.00000000E+00  0.00000000E+00  0.00000000E+00
  0.00000000E+00  0.00000000E+00  0.00000000E+00
  0.00000000E+00  0.00000000E+00  0.00000000E+00
  0.00000000E+00  0.00000000E+00  0.00000000E+00
  0.00000000E+00  0.00000000E+00  0.00000000E+00
  0.00000000E+00  0.00000000E+00  0.00000000E+00
  0.00000000E+00  0.00000000E+00  0.00000000E+00
  0.00000000E+00  0.00000000E+00  0.00000000E+00
  0.00000000E+00  0.00000000E+00  0.00000000E+00
  0.00000000E+00  0.00000000E+00  0.00000000E+00
  0.00000000E+00  0.00000000E+00  0.00000000E+00
  0.00000000E+00  0.00000000E+00  0.00000000E+00
  0.00000000E+00  0.00000000E+00  0.00000000E+00
  0.00000000E+00  0.00000000E+00  0.00000000E+00
  0.00000000E+00  0.00000000E+00  0.00000000E+00
  0.00000000E+00  0.00000000E+00  0.00000000E+00
  0.00000000E+00  0.00000000E+00  0.00000000E+00
  0.00000000E+00  0.00000000E+00  0.00000000E+00
  0.00000000E+00  0.00000000E+00  0.00000000E+00
  0.00000000E+00  0.00000000E+00  0.00000000E+00
  0.00000000E+00  0.00000000E+00  0.00000000E+00
  0.00000000E+00  0.00000000E+00  0.00000000E+00
